CONTCAR\(6)                             
   1.00000000000000     
     4.8587999344000004    0.0000000000000000    0.0000000000000000
     2.4293999672000002    4.2078441751000000    0.0000000000000000
     0.0000000000000000    0.0000000000000000   39.1618995667000007
   Pt   O    H 
    15     2     4
Selective dynamics
Direct
  0.3333300050000005  0.0000100000000032  0.0255399999999995   F   F   F
  0.9999899860000028  0.6666700239999983  0.0255399999999995   F   F   F
  0.6666600109999976  0.3333399890000024  0.0255399999999995   F   F   F
  0.0000000000000000  0.0000000000000000  0.0840200040000028   F   F   F
  0.6666700239999983  0.6666700239999983  0.0840200040000028   F   F   F
  0.3333300050000005  0.3333300050000005  0.0840200040000028   F   F   F
  0.9992554455783296  0.3340026334363647  0.1418380906127150   T   T   T
  0.6657233963289808  0.0010893415652492  0.1418159500398851   T   T   T
  0.3320606003750618  0.6675194183624625  0.1418275942730949   T   T   T
  0.3323971394890800  0.0000239324865707  0.1994988973451803   T   T   T
  0.9954645568580207  0.6691184040942669  0.1995259330426243   T   T   T
  0.6644468155167189  0.3368265216755044  0.1994938179251885   T   T   T
  0.9949808960569644  0.0033073734044216  0.2578788791899149   T   T   T
  0.6607035121657875  0.6697048548309912  0.2598750648305199   T   T   T
  0.3281817418206646  0.3366790547127920  0.2574372045194626   T   T   T
  0.6547374765307480  0.6670139474147267  0.3217586235620974   T   T   T
  0.3165841658911990  0.3313627723887267  0.3414177045875144   T   T   T
  0.4275424461211273  0.4419629227682251  0.3329303176361577   T   T   T
  0.8846897676469988  0.5655276859971218  0.3275421844670192   T   T   T
  0.5527820841965971  0.8970888178981306  0.3274085875444311   T   T   T
  0.3262077892070686  0.3404212188992455  0.3662839521650474   T   T   T
 
  0.00000000E+00  0.00000000E+00  0.00000000E+00
  0.00000000E+00  0.00000000E+00  0.00000000E+00
  0.00000000E+00  0.00000000E+00  0.00000000E+00
  0.00000000E+00  0.00000000E+00  0.00000000E+00
  0.00000000E+00  0.00000000E+00  0.00000000E+00
  0.00000000E+00  0.00000000E+00  0.00000000E+00
  0.00000000E+00  0.00000000E+00  0.00000000E+00
  0.00000000E+00  0.00000000E+00  0.00000000E+00
  0.00000000E+00  0.00000000E+00  0.00000000E+00
  0.00000000E+00  0.00000000E+00  0.00000000E+00
  0.00000000E+00  0.00000000E+00  0.00000000E+00
  0.00000000E+00  0.00000000E+00  0.00000000E+00
  0.00000000E+00  0.00000000E+00  0.00000000E+00
  0.00000000E+00  0.00000000E+00  0.00000000E+00
  0.00000000E+00  0.00000000E+00  0.00000000E+00
  0.00000000E+00  0.00000000E+00  0.00000000E+00
  0.00000000E+00  0.00000000E+00  0.00000000E+00
  0.00000000E+00  0.00000000E+00  0.00000000E+00
  0.00000000E+00  0.00000000E+00  0.00000000E+00
  0.00000000E+00  0.00000000E+00  0.00000000E+00
  0.00000000E+00  0.00000000E+00  0.00000000E+00
