9                                       
   1.00000000000000     
     8.4158000945999998    0.0000000000000000    0.0000000000000000
    -4.2079000472999999    7.2882966750999998    0.0000000000000000
     0.0000000000000000    0.0000000000000000   39.1618995667000007
   Pt   O    H 
    45     6    12
Selective dynamics
Direct
  0.2222200040000004  0.1111100019999967  0.0255399999999995   F   F   F
  0.2222200040000004  0.4444499909999990  0.0255399999999995   F   F   F
  0.2222200040000004  0.7777799959999996  0.0255399999999995   F   F   F
  0.5555499789999985  0.1111100019999967  0.0255399999999995   F   F   F
  0.5555499789999985  0.4444499909999990  0.0255399999999995   F   F   F
  0.5555499789999985  0.7777799959999996  0.0255399999999995   F   F   F
  0.8888900279999987  0.1111100019999967  0.0255399999999995   F   F   F
  0.8888900279999987  0.4444499909999990  0.0255399999999995   F   F   F
  0.8888900279999987  0.7777799959999996  0.0255399999999995   F   F   F
  0.0000000000000000  0.0000000000000000  0.0840200040000028   F   F   F
  0.0000000000000000  0.3333300050000005  0.0840200040000028   F   F   F
  0.0000000000000000  0.6666700239999983  0.0840200040000028   F   F   F
  0.3333300050000005  0.0000000000000000  0.0840200040000028   F   F   F
  0.3333300050000005  0.3333300050000005  0.0840200040000028   F   F   F
  0.3333300050000005  0.6666700239999983  0.0840200040000028   F   F   F
  0.6666700239999983  0.0000000000000000  0.0840200040000028   F   F   F
  0.6666700239999983  0.3333300050000005  0.0840200040000028   F   F   F
  0.6666700239999983  0.6666700239999983  0.0840200040000028   F   F   F
  0.1118048470156289  0.2223006794580565  0.1421764093146855   T   T   T
  0.1116623603380630  0.5546410059416673  0.1416987145150451   T   T   T
  0.1116705764429280  0.8898167397377943  0.1417043185096180   T   T   T
  0.4440620986556721  0.2223208064569585  0.1421687895732015   T   T   T
  0.4440487681442419  0.5545690871878821  0.1421775438593733   T   T   T
  0.4447204705325738  0.8887484612430614  0.1417054131625385   T   T   T
  0.7775282756093186  0.2215547156152590  0.1417159053629933   T   T   T
  0.7764857099105567  0.5546242763205811  0.1417049007762046   T   T   T
  0.7776152164193527  0.8888036527252945  0.1417132394177193   T   T   T
  0.2227745734248060  0.1118375684606098  0.2005253020012733   T   T   T
  0.2228362471950306  0.4430431564927281  0.2005305452289116   T   T   T
  0.2217888508387620  0.7767611123991065  0.1991676327845452   T   T   T
  0.5554474461219696  0.1105265666819451  0.1995556787300100   T   T   T
  0.5540420991126948  0.4429615031330493  0.2005437796471271   T   T   T
  0.5553773400023553  0.7770276070771150  0.1995417037771723   T   T   T
  0.8887888848858749  0.1102710837106314  0.1995719355707542   T   T   T
  0.8889965304812130  0.4441208066453016  0.1991674138587641   T   T   T
  0.8892650691395760  0.7769151352958830  0.1991588918669434   T   T   T
  0.9975053840850338  0.9965917053868485  0.2584269753239858   T   T   T
  0.9974797107797755  0.3317706258080749  0.2582959879338944   T   T   T
  0.9998786875311728  0.6653799847652059  0.2583902432085339   T   T   T
  0.3333745318478513  0.9964696443562812  0.2582682947483049   T   T   T
  0.3333307895916062  0.3320154665955953  0.2609608481251278   T   T   T
  0.3334844441299335  0.6677338995076972  0.2584109833173645   T   T   T
  0.6664881166011013 -0.0012293045085355  0.2586890542053184   T   T   T
  0.6687885853300123  0.3318950287561934  0.2584033447787507   T   T   T
  0.6689304100136936  0.6680946360267059  0.2582196736482474   T   T   T
  0.3428724791170966  0.0288161490126752  0.3480870473836066   T   T   T
  0.0116950699033356  0.6540059149695281  0.3499528507857123   T   T   T
  0.6566886250120910  0.0093231322378272  0.3500459198544170   T   T   T
  0.0314266340829961  0.3411898862652022  0.3480276113029165   T   T   T
  0.6587346180974449  0.6522864416246228  0.3479078411193516   T   T   T
  0.3369109827283319  0.3347457809377111  0.3209101310221723   T   T   T
  0.4589227915356581  0.0232513997634619  0.3450780252910092   T   T   T
  0.0263419316111744  0.4575641814789568  0.3449938691837776   T   T   T
  0.5538837596505444  0.5486935840585366  0.3360309154474189   T   T   T
  0.6578134660105250  0.8971503835062608  0.3432897380362439   T   T   T
  0.7734464524212948  0.1131232272008400  0.3420207768730595   T   T   T
  0.2216720916042235  0.3310673378923696  0.3287202609484488   T   T   T
  0.3324979293599142  0.2189791538509148  0.3285797124568888   T   T   T
  0.1147788741995899  0.7715721753025914  0.3420697839020833   T   T   T
  0.8985014282057627  0.6540430575130572  0.3434650707910320   T   T   T
  0.6317370606364866  0.6255473583061105  0.3721055853760551   T   T   T
  0.3296994670716833  0.0303835923852538  0.3727791317761971   T   T   T
  0.0313876996676395  0.3273508608869462  0.3727322167715979   T   T   T
 
  0.00000000E+00  0.00000000E+00  0.00000000E+00
  0.00000000E+00  0.00000000E+00  0.00000000E+00
  0.00000000E+00  0.00000000E+00  0.00000000E+00
  0.00000000E+00  0.00000000E+00  0.00000000E+00
  0.00000000E+00  0.00000000E+00  0.00000000E+00
  0.00000000E+00  0.00000000E+00  0.00000000E+00
  0.00000000E+00  0.00000000E+00  0.00000000E+00
  0.00000000E+00  0.00000000E+00  0.00000000E+00
  0.00000000E+00  0.00000000E+00  0.00000000E+00
  0.00000000E+00  0.00000000E+00  0.00000000E+00
  0.00000000E+00  0.00000000E+00  0.00000000E+00
  0.00000000E+00  0.00000000E+00  0.00000000E+00
  0.00000000E+00  0.00000000E+00  0.00000000E+00
  0.00000000E+00  0.00000000E+00  0.00000000E+00
  0.00000000E+00  0.00000000E+00  0.00000000E+00
  0.00000000E+00  0.00000000E+00  0.00000000E+00
  0.00000000E+00  0.00000000E+00  0.00000000E+00
  0.00000000E+00  0.00000000E+00  0.00000000E+00
  0.00000000E+00  0.00000000E+00  0.00000000E+00
  0.00000000E+00  0.00000000E+00  0.00000000E+00
  0.00000000E+00  0.00000000E+00  0.00000000E+00
  0.00000000E+00  0.00000000E+00  0.00000000E+00
  0.00000000E+00  0.00000000E+00  0.00000000E+00
  0.00000000E+00  0.00000000E+00  0.00000000E+00
  0.00000000E+00  0.00000000E+00  0.00000000E+00
  0.00000000E+00  0.00000000E+00  0.00000000E+00
  0.00000000E+00  0.00000000E+00  0.00000000E+00
  0.00000000E+00  0.00000000E+00  0.00000000E+00
  0.00000000E+00  0.00000000E+00  0.00000000E+00
  0.00000000E+00  0.00000000E+00  0.00000000E+00
  0.00000000E+00  0.00000000E+00  0.00000000E+00
  0.00000000E+00  0.00000000E+00  0.00000000E+00
  0.00000000E+00  0.00000000E+00  0.00000000E+00
  0.00000000E+00  0.00000000E+00  0.00000000E+00
  0.00000000E+00  0.00000000E+00  0.00000000E+00
  0.00000000E+00  0.00000000E+00  0.00000000E+00
  0.00000000E+00  0.00000000E+00  0.00000000E+00
  0.00000000E+00  0.00000000E+00  0.00000000E+00
  0.00000000E+00  0.00000000E+00  0.00000000E+00
  0.00000000E+00  0.00000000E+00  0.00000000E+00
  0.00000000E+00  0.00000000E+00  0.00000000E+00
  0.00000000E+00  0.00000000E+00  0.00000000E+00
  0.00000000E+00  0.00000000E+00  0.00000000E+00
  0.00000000E+00  0.00000000E+00  0.00000000E+00
  0.00000000E+00  0.00000000E+00  0.00000000E+00
  0.00000000E+00  0.00000000E+00  0.00000000E+00
  0.00000000E+00  0.00000000E+00  0.00000000E+00
  0.00000000E+00  0.00000000E+00  0.00000000E+00
  0.00000000E+00  0.00000000E+00  0.00000000E+00
  0.00000000E+00  0.00000000E+00  0.00000000E+00
  0.00000000E+00  0.00000000E+00  0.00000000E+00
  0.00000000E+00  0.00000000E+00  0.00000000E+00
  0.00000000E+00  0.00000000E+00  0.00000000E+00
  0.00000000E+00  0.00000000E+00  0.00000000E+00
  0.00000000E+00  0.00000000E+00  0.00000000E+00
  0.00000000E+00  0.00000000E+00  0.00000000E+00
  0.00000000E+00  0.00000000E+00  0.00000000E+00
  0.00000000E+00  0.00000000E+00  0.00000000E+00
  0.00000000E+00  0.00000000E+00  0.00000000E+00
  0.00000000E+00  0.00000000E+00  0.00000000E+00
  0.00000000E+00  0.00000000E+00  0.00000000E+00
  0.00000000E+00  0.00000000E+00  0.00000000E+00
  0.00000000E+00  0.00000000E+00  0.00000000E+00
