9                                       
   1.00000000000000     
     8.4158000945999998    0.0000000000000000    0.0000000000000000
    -4.2079000472999999    7.2882966750999998    0.0000000000000000
     0.0000000000000000    0.0000000000000000   39.1618995667000007
   Pt   O    H 
    45     6     9
Selective dynamics
Direct
  0.2222200040000004  0.1111100019999967  0.0255399999999995   F   F   F
  0.2222200040000004  0.4444499909999990  0.0255399999999995   F   F   F
  0.2222200040000004  0.7777799959999996  0.0255399999999995   F   F   F
  0.5555499789999985  0.1111100019999967  0.0255399999999995   F   F   F
  0.5555499789999985  0.4444499909999990  0.0255399999999995   F   F   F
  0.5555499789999985  0.7777799959999996  0.0255399999999995   F   F   F
  0.8888900279999987  0.1111100019999967  0.0255399999999995   F   F   F
  0.8888900279999987  0.4444499909999990  0.0255399999999995   F   F   F
  0.8888900279999987  0.7777799959999996  0.0255399999999995   F   F   F
  0.0000000000000000  0.0000000000000000  0.0840200040000028   F   F   F
  0.0000000000000000  0.3333300050000005  0.0840200040000028   F   F   F
  0.0000000000000000  0.6666700239999983  0.0840200040000028   F   F   F
  0.3333300050000005  0.0000000000000000  0.0840200040000028   F   F   F
  0.3333300050000005  0.3333300050000005  0.0840200040000028   F   F   F
  0.3333300050000005  0.6666700239999983  0.0840200040000028   F   F   F
  0.6666700239999983  0.0000000000000000  0.0840200040000028   F   F   F
  0.6666700239999983  0.3333300050000005  0.0840200040000028   F   F   F
  0.6666700239999983  0.6666700239999983  0.0840200040000028   F   F   F
  0.1113185471609325  0.2223374623669897  0.1418513506959438   T   T   T
  0.1117027517396520  0.5558295320979962  0.1421862375890004   T   T   T
  0.1114573939441689  0.8889254714235251  0.1418533697516558   T   T   T
  0.4457953435220726  0.2225301709462775  0.1422094839131138   T   T   T
  0.4444061516119307  0.5556576496897397  0.1421870352598580   T   T   T
  0.4445125014515993  0.8885662250263764  0.1421890628164726   T   T   T
  0.7777532531001472  0.2230869515545240  0.1422116322603489   T   T   T
  0.7770754762159220  0.5544591395791594  0.1422186216557599   T   T   T
  0.7779150935780401  0.8888319550017291  0.1418600140075214   T   T   T
  0.2256683124170804  0.1127023332384763  0.1995661736178165   T   T   T
  0.2210855077710830  0.4421720220997309  0.2002561816593758   T   T   T
  0.2222272834666128  0.7794426408502820  0.2002586720808827   T   T   T
  0.5544162267848515  0.1085906185568699  0.2006045777384007   T   T   T
  0.5551982465573295  0.4462036786137035  0.2006270889690835   T   T   T
  0.5584427750968617  0.7784752706150837  0.2002401802826996   T   T   T
  0.8879951330860654  0.1124766497073822  0.1995894885626115   T   T   T
  0.8920691456861539  0.4454490095062197  0.2005765225507262   T   T   T
  0.8881287160453585  0.7750213286806457  0.1995780500880127   T   T   T
  0.0013258969704551  0.0001227178276487  0.2559616534224750   T   T   T
  0.0015999459604323  0.3320923742238716  0.2601329175421300   T   T   T
  0.0010015388167970  0.6638553038147816  0.2594966227475186   T   T   T
  0.3331235116513029 -0.0000691761108747  0.2601353284384071   T   T   T
  0.3376325585534696  0.3360099188572375  0.2595254010900170   T   T   T
  0.3346998048759779  0.6667047203428770  0.2576042989648215   T   T   T
  0.6654444948483454  0.0005675952121209  0.2595084861596413   T   T   T
  0.6679383710870470  0.3335376963907147  0.2578533244731318   T   T   T
  0.6694486693978489  0.6685313366548526  0.2601528921738956   T   T   T
  0.3094317158444594 -0.0004252452807240  0.3138762017101868   T   T   T
  0.0019234713756304  0.6807309085694961  0.3153920446457961   T   T   T
  0.6817174642055142  0.0004809798731519  0.3154038120435038   T   T   T
  0.0009269601616845  0.3087087402496885  0.3138643523794480   T   T   T
  0.6931733801881566  0.6922538077191710  0.3138742993623512   T   T   T
  0.3209660893333485  0.3201306866339906  0.3154827685782016   T   T   T
  0.4197786720699175 -0.0005696570775509  0.3220305081615653   T   T   T
  0.0008874910246043  0.4191714190140824  0.3219782584258982   T   T   T
  0.5828195646897535  0.5819446533455134  0.3220648877371104   T   T   T
  0.6912096663418297  0.8851134560998808  0.3190168238169149   T   T   T
  0.8065298626666377  0.1159331145955615  0.3190068857674433   T   T   T
  0.1961547917630427  0.3107698401952161  0.3190662270262875   T   T   T
  0.3112882870363894  0.1952902412760989  0.3190932322260325   T   T   T
  0.1175460975140029  0.8056612365005895  0.3189395940748597   T   T   T
  0.8867661578911563  0.6903297558034326  0.3190564997659365   T   T   T
 
  0.00000000E+00  0.00000000E+00  0.00000000E+00
  0.00000000E+00  0.00000000E+00  0.00000000E+00
  0.00000000E+00  0.00000000E+00  0.00000000E+00
  0.00000000E+00  0.00000000E+00  0.00000000E+00
  0.00000000E+00  0.00000000E+00  0.00000000E+00
  0.00000000E+00  0.00000000E+00  0.00000000E+00
  0.00000000E+00  0.00000000E+00  0.00000000E+00
  0.00000000E+00  0.00000000E+00  0.00000000E+00
  0.00000000E+00  0.00000000E+00  0.00000000E+00
  0.00000000E+00  0.00000000E+00  0.00000000E+00
  0.00000000E+00  0.00000000E+00  0.00000000E+00
  0.00000000E+00  0.00000000E+00  0.00000000E+00
  0.00000000E+00  0.00000000E+00  0.00000000E+00
  0.00000000E+00  0.00000000E+00  0.00000000E+00
  0.00000000E+00  0.00000000E+00  0.00000000E+00
  0.00000000E+00  0.00000000E+00  0.00000000E+00
  0.00000000E+00  0.00000000E+00  0.00000000E+00
  0.00000000E+00  0.00000000E+00  0.00000000E+00
  0.00000000E+00  0.00000000E+00  0.00000000E+00
  0.00000000E+00  0.00000000E+00  0.00000000E+00
  0.00000000E+00  0.00000000E+00  0.00000000E+00
  0.00000000E+00  0.00000000E+00  0.00000000E+00
  0.00000000E+00  0.00000000E+00  0.00000000E+00
  0.00000000E+00  0.00000000E+00  0.00000000E+00
  0.00000000E+00  0.00000000E+00  0.00000000E+00
  0.00000000E+00  0.00000000E+00  0.00000000E+00
  0.00000000E+00  0.00000000E+00  0.00000000E+00
  0.00000000E+00  0.00000000E+00  0.00000000E+00
  0.00000000E+00  0.00000000E+00  0.00000000E+00
  0.00000000E+00  0.00000000E+00  0.00000000E+00
  0.00000000E+00  0.00000000E+00  0.00000000E+00
  0.00000000E+00  0.00000000E+00  0.00000000E+00
  0.00000000E+00  0.00000000E+00  0.00000000E+00
  0.00000000E+00  0.00000000E+00  0.00000000E+00
  0.00000000E+00  0.00000000E+00  0.00000000E+00
  0.00000000E+00  0.00000000E+00  0.00000000E+00
  0.00000000E+00  0.00000000E+00  0.00000000E+00
  0.00000000E+00  0.00000000E+00  0.00000000E+00
  0.00000000E+00  0.00000000E+00  0.00000000E+00
  0.00000000E+00  0.00000000E+00  0.00000000E+00
  0.00000000E+00  0.00000000E+00  0.00000000E+00
  0.00000000E+00  0.00000000E+00  0.00000000E+00
  0.00000000E+00  0.00000000E+00  0.00000000E+00
  0.00000000E+00  0.00000000E+00  0.00000000E+00
  0.00000000E+00  0.00000000E+00  0.00000000E+00
  0.00000000E+00  0.00000000E+00  0.00000000E+00
  0.00000000E+00  0.00000000E+00  0.00000000E+00
  0.00000000E+00  0.00000000E+00  0.00000000E+00
  0.00000000E+00  0.00000000E+00  0.00000000E+00
  0.00000000E+00  0.00000000E+00  0.00000000E+00
  0.00000000E+00  0.00000000E+00  0.00000000E+00
  0.00000000E+00  0.00000000E+00  0.00000000E+00
  0.00000000E+00  0.00000000E+00  0.00000000E+00
  0.00000000E+00  0.00000000E+00  0.00000000E+00
  0.00000000E+00  0.00000000E+00  0.00000000E+00
  0.00000000E+00  0.00000000E+00  0.00000000E+00
  0.00000000E+00  0.00000000E+00  0.00000000E+00
  0.00000000E+00  0.00000000E+00  0.00000000E+00
  0.00000000E+00  0.00000000E+00  0.00000000E+00
  0.00000000E+00  0.00000000E+00  0.00000000E+00
