9                                       
   1.00000000000000     
     8.4158000945999998    0.0000000000000000    0.0000000000000000
    -4.2079000472999999    7.2882966750999998    0.0000000000000000
     0.0000000000000000    0.0000000000000000   39.1618995667000007
   Pt   O    H 
    45     6     6
Selective dynamics
Direct
  0.2222200040000004  0.1111100019999967  0.0255399999999995   F   F   F
  0.2222200040000004  0.4444499909999990  0.0255399999999995   F   F   F
  0.2222200040000004  0.7777799959999996  0.0255399999999995   F   F   F
  0.5555499789999985  0.1111100019999967  0.0255399999999995   F   F   F
  0.5555499789999985  0.4444499909999990  0.0255399999999995   F   F   F
  0.5555499789999985  0.7777799959999996  0.0255399999999995   F   F   F
  0.8888900279999987  0.1111100019999967  0.0255399999999995   F   F   F
  0.8888900279999987  0.4444499909999990  0.0255399999999995   F   F   F
  0.8888900279999987  0.7777799959999996  0.0255399999999995   F   F   F
  0.0000000000000000  0.0000000000000000  0.0840200040000028   F   F   F
  0.0000000000000000  0.3333300050000005  0.0840200040000028   F   F   F
  0.0000000000000000  0.6666700239999983  0.0840200040000028   F   F   F
  0.3333300050000005  0.0000000000000000  0.0840200040000028   F   F   F
  0.3333300050000005  0.3333300050000005  0.0840200040000028   F   F   F
  0.3333300050000005  0.6666700239999983  0.0840200040000028   F   F   F
  0.6666700239999983  0.0000000000000000  0.0840200040000028   F   F   F
  0.6666700239999983  0.3333300050000005  0.0840200040000028   F   F   F
  0.6666700239999983  0.6666700239999983  0.0840200040000028   F   F   F
  0.1104312586107741  0.2213787216623079  0.1423100777933402   T   T   T
  0.1111696425210513  0.5559887609584573  0.1421070738638254   T   T   T
  0.1113770957417207  0.8898337270455360  0.1423100783387737   T   T   T
  0.4439803409688927  0.2219278166656651  0.1420148161534671   T   T   T
  0.4442470639977140  0.5550062050536907  0.1421123953071295   T   T   T
  0.4452510923006781  0.8890813450472231  0.1421115113048816   T   T   T
  0.7783172392878167  0.2218822967913937  0.1420093801836273   T   T   T
  0.7783735872938335  0.5562758195382019  0.1420147240110250   T   T   T
  0.7788725895569190  0.8888618696834448  0.1423093587389829   T   T   T
  0.2265008332556153  0.1134112607355497  0.2009650995225988   T   T   T
  0.2205907911790163  0.4413180219717480  0.2001133235545471   T   T   T
  0.2215885657305981  0.7799109259514787  0.2001024580587915   T   T   T
  0.5551662725580414  0.1091024903579547  0.2001138264236271   T   T   T
  0.5548214346693964  0.4454044450554769  0.2001110273682380   T   T   T
  0.5592632853752907  0.7789889879652249  0.2001094783324337   T   T   T
  0.8871903597047872  0.1126957363290760  0.2009472885578869   T   T   T
  0.8914590189441837  0.4457304187233200  0.2001098995654081   T   T   T
  0.8878405232903224  0.7740919417877149  0.2009686974147960   T   T   T
  0.0007601399311763  0.0001322992882064  0.2574948546933958   T   T   T
  0.0014877080625805  0.3340225094717801  0.2599240813350119   T   T   T
 -0.0008945213168903  0.6680386076281992  0.2599524681480160   T   T   T
  0.3338957000184078 -0.0006165581505891  0.2599401181219699   T   T   T
  0.3328106427260388  0.3306086664913045  0.2599529905798032   T   T   T
  0.3340825934357091  0.6668267688593370  0.2563132725912983   T   T   T
  0.6703088902176940  0.0018334760609391  0.2599380872727800   T   T   T
  0.6673842926221309  0.3335082294969506  0.2569493904276213   T   T   T
  0.6668251285828289  0.6670518452755974  0.2599406940148685   T   T   T
  0.3337946568708378  0.9801970150005367  0.3104323333336632   T   T   T
  0.0162233484375692  0.6654948430567209  0.3104893630571545   T   T   T
  0.6520342265683100 -0.0139380253284009  0.3105068698624985   T   T   T
  0.0193702662906915  0.3518896975664377  0.3104224933940046   T   T   T
  0.6480689515738456  0.6670032339993462  0.3104172004164899   T   T   T
  0.3357221842133044  0.3502734837368977  0.3105092492151366   T   T   T
  0.4526200392211625  0.9835328938869053  0.3159944455459934   T   T   T
  0.0171350668574123  0.4679446620003446  0.3159945701869533   T   T   T
  0.5321406574017438  0.5484489363797829  0.3159686088090634   T   T   T
  0.6509938603184564  0.8686827865467184  0.3161899229297525   T   T   T
  0.2189606422907434  0.3504690804423594  0.3161892865516633   T   T   T
  0.1336691713820971  0.7819973233108042  0.3161320716931776   T   T   T
 
  0.00000000E+00  0.00000000E+00  0.00000000E+00
  0.00000000E+00  0.00000000E+00  0.00000000E+00
  0.00000000E+00  0.00000000E+00  0.00000000E+00
  0.00000000E+00  0.00000000E+00  0.00000000E+00
  0.00000000E+00  0.00000000E+00  0.00000000E+00
  0.00000000E+00  0.00000000E+00  0.00000000E+00
  0.00000000E+00  0.00000000E+00  0.00000000E+00
  0.00000000E+00  0.00000000E+00  0.00000000E+00
  0.00000000E+00  0.00000000E+00  0.00000000E+00
  0.00000000E+00  0.00000000E+00  0.00000000E+00
  0.00000000E+00  0.00000000E+00  0.00000000E+00
  0.00000000E+00  0.00000000E+00  0.00000000E+00
  0.00000000E+00  0.00000000E+00  0.00000000E+00
  0.00000000E+00  0.00000000E+00  0.00000000E+00
  0.00000000E+00  0.00000000E+00  0.00000000E+00
  0.00000000E+00  0.00000000E+00  0.00000000E+00
  0.00000000E+00  0.00000000E+00  0.00000000E+00
  0.00000000E+00  0.00000000E+00  0.00000000E+00
  0.00000000E+00  0.00000000E+00  0.00000000E+00
  0.00000000E+00  0.00000000E+00  0.00000000E+00
  0.00000000E+00  0.00000000E+00  0.00000000E+00
  0.00000000E+00  0.00000000E+00  0.00000000E+00
  0.00000000E+00  0.00000000E+00  0.00000000E+00
  0.00000000E+00  0.00000000E+00  0.00000000E+00
  0.00000000E+00  0.00000000E+00  0.00000000E+00
  0.00000000E+00  0.00000000E+00  0.00000000E+00
  0.00000000E+00  0.00000000E+00  0.00000000E+00
  0.00000000E+00  0.00000000E+00  0.00000000E+00
  0.00000000E+00  0.00000000E+00  0.00000000E+00
  0.00000000E+00  0.00000000E+00  0.00000000E+00
  0.00000000E+00  0.00000000E+00  0.00000000E+00
  0.00000000E+00  0.00000000E+00  0.00000000E+00
  0.00000000E+00  0.00000000E+00  0.00000000E+00
  0.00000000E+00  0.00000000E+00  0.00000000E+00
  0.00000000E+00  0.00000000E+00  0.00000000E+00
  0.00000000E+00  0.00000000E+00  0.00000000E+00
  0.00000000E+00  0.00000000E+00  0.00000000E+00
  0.00000000E+00  0.00000000E+00  0.00000000E+00
  0.00000000E+00  0.00000000E+00  0.00000000E+00
  0.00000000E+00  0.00000000E+00  0.00000000E+00
  0.00000000E+00  0.00000000E+00  0.00000000E+00
  0.00000000E+00  0.00000000E+00  0.00000000E+00
  0.00000000E+00  0.00000000E+00  0.00000000E+00
  0.00000000E+00  0.00000000E+00  0.00000000E+00
  0.00000000E+00  0.00000000E+00  0.00000000E+00
  0.00000000E+00  0.00000000E+00  0.00000000E+00
  0.00000000E+00  0.00000000E+00  0.00000000E+00
  0.00000000E+00  0.00000000E+00  0.00000000E+00
  0.00000000E+00  0.00000000E+00  0.00000000E+00
  0.00000000E+00  0.00000000E+00  0.00000000E+00
  0.00000000E+00  0.00000000E+00  0.00000000E+00
  0.00000000E+00  0.00000000E+00  0.00000000E+00
  0.00000000E+00  0.00000000E+00  0.00000000E+00
  0.00000000E+00  0.00000000E+00  0.00000000E+00
  0.00000000E+00  0.00000000E+00  0.00000000E+00
  0.00000000E+00  0.00000000E+00  0.00000000E+00
  0.00000000E+00  0.00000000E+00  0.00000000E+00
