9                                       
   1.00000000000000     
     8.4158000945999998    0.0000000000000000    0.0000000000000000
    -4.2079000472999999    7.2882966750999998    0.0000000000000000
     0.0000000000000000    0.0000000000000000   39.1618995667000007
   Pt   O    H 
    45     6    10
Selective dynamics
Direct
  0.2222200040000004  0.1111100019999967  0.0255399999999995   F   F   F
  0.2222200040000004  0.4444499909999990  0.0255399999999995   F   F   F
  0.2222200040000004  0.7777799959999996  0.0255399999999995   F   F   F
  0.5555499789999985  0.1111100019999967  0.0255399999999995   F   F   F
  0.5555499789999985  0.4444499909999990  0.0255399999999995   F   F   F
  0.5555499789999985  0.7777799959999996  0.0255399999999995   F   F   F
  0.8888900279999987  0.1111100019999967  0.0255399999999995   F   F   F
  0.8888900279999987  0.4444499909999990  0.0255399999999995   F   F   F
  0.8888900279999987  0.7777799959999996  0.0255399999999995   F   F   F
  0.0000000000000000  0.0000000000000000  0.0840200040000028   F   F   F
  0.0000000000000000  0.3333300050000005  0.0840200040000028   F   F   F
  0.0000000000000000  0.6666700239999983  0.0840200040000028   F   F   F
  0.3333300050000005  0.0000000000000000  0.0840200040000028   F   F   F
  0.3333300050000005  0.3333300050000005  0.0840200040000028   F   F   F
  0.3333300050000005  0.6666700239999983  0.0840200040000028   F   F   F
  0.6666700239999983  0.0000000000000000  0.0840200040000028   F   F   F
  0.6666700239999983  0.3333300050000005  0.0840200040000028   F   F   F
  0.6666700239999983  0.6666700239999983  0.0840200040000028   F   F   F
  0.1109871225118883  0.2216092623394793  0.1415269084311307   T   T   T
  0.1118536254604685  0.5562990463629141  0.1416999554040781   T   T   T
  0.1108399279435862  0.8890691027302607  0.1420325724070025   T   T   T
  0.4451410907605834  0.2222826781499078  0.1423657606253659   T   T   T
  0.4452880533583811  0.5560598025934900  0.1421781161807000   T   T   T
  0.4439936110808671  0.8884125872179173  0.1423234968603010   T   T   T
  0.7763736647366638  0.2225759382350407  0.1417063526606160   T   T   T
  0.7763846755113692  0.5558968940296622  0.1421195388215675   T   T   T
  0.7765106118770283  0.8875065206380927  0.1419551607643349   T   T   T
  0.2236709793231413  0.1123759546251190  0.1999359410925939   T   T   T
  0.2217257387435156  0.4434018345115844  0.1992199086319752   T   T   T
  0.2204015037053382  0.7791195608410686  0.2002769292420670   T   T   T
  0.5530368765286597  0.1083804977122541  0.2007623340943552   T   T   T
  0.5539427418518268  0.4461106081542771  0.2008885814978737   T   T   T
  0.5562940551253553  0.7780560696603710  0.2007404385276691   T   T   T
  0.8858886016821922  0.1108658319788483  0.1987353176124230   T   T   T
  0.8882280274966086  0.4458815354753657  0.1991569243672440   T   T   T
  0.8869718540084519  0.7762173648105029  0.2001766099377592   T   T   T
 -0.0032372874370426  0.0035760461777974  0.2566439523298939   T   T   T
 -0.0032836328118007  0.3324975883585590  0.2572901628088785   T   T   T
 -0.0029987952850879  0.6621287324657402  0.2593554516455773   T   T   T
  0.3282207065709317 -0.0008031317208071  0.2602647891427251   T   T   T
  0.3289098929709473  0.3346555228893477  0.2598988618193002   T   T   T
  0.3282907675239585  0.6639552360935921  0.2577383757998373   T   T   T
  0.6637993741421327  0.0031105531727048  0.2600321502941448   T   T   T
  0.6655845632587907  0.3330233647897306  0.2578690563092708   T   T   T
  0.6649302965455900  0.6678626767721276  0.2602865562348896   T   T   T
  0.3060790769052240 -0.0034897858642199  0.3143283640726689   T   T   T
  0.9969465609668957  0.6733111404991527  0.3164614709693609   T   T   T
  0.6679585951470209  0.9861230294068121  0.3176977820416361   T   T   T
  0.9967912496799298  0.3245688751247525  0.3408816188282467   T   T   T
  0.6873805275760779  0.6872194932842609  0.3143923051522036   T   T   T
  0.3275069095150404  0.3165868842014381  0.3177839904228579   T   T   T
  0.4159739600986354 -0.0066504856743661  0.3218210693342290   T   T   T
  0.9967622328744268  0.4286883899761227  0.3291233131555170   T   T   T
  0.5772914874783527  0.5743376322034984  0.3218948495705689   T   T   T
  0.6785961318325432  0.8691323137185724  0.3196939744268583   T   T   T
  0.7846297222327144  0.0938767726702123  0.3251371364362170   T   T   T
  0.2107882206372840  0.3075568893449648  0.3252192011783252   T   T   T
  0.3162997009832302  0.1888855912828342  0.3197428537663181   T   T   T
  0.1117754759059569  0.7989776910920825  0.3194135068442212   T   T   T
  0.8820166262041845  0.6838863923278415  0.3194409606246510   T   T   T
  0.9958948711044262  0.3501607168242888  0.3651406625443810   T   T   T
 
  0.00000000E+00  0.00000000E+00  0.00000000E+00
  0.00000000E+00  0.00000000E+00  0.00000000E+00
  0.00000000E+00  0.00000000E+00  0.00000000E+00
  0.00000000E+00  0.00000000E+00  0.00000000E+00
  0.00000000E+00  0.00000000E+00  0.00000000E+00
  0.00000000E+00  0.00000000E+00  0.00000000E+00
  0.00000000E+00  0.00000000E+00  0.00000000E+00
  0.00000000E+00  0.00000000E+00  0.00000000E+00
  0.00000000E+00  0.00000000E+00  0.00000000E+00
  0.00000000E+00  0.00000000E+00  0.00000000E+00
  0.00000000E+00  0.00000000E+00  0.00000000E+00
  0.00000000E+00  0.00000000E+00  0.00000000E+00
  0.00000000E+00  0.00000000E+00  0.00000000E+00
  0.00000000E+00  0.00000000E+00  0.00000000E+00
  0.00000000E+00  0.00000000E+00  0.00000000E+00
  0.00000000E+00  0.00000000E+00  0.00000000E+00
  0.00000000E+00  0.00000000E+00  0.00000000E+00
  0.00000000E+00  0.00000000E+00  0.00000000E+00
  0.00000000E+00  0.00000000E+00  0.00000000E+00
  0.00000000E+00  0.00000000E+00  0.00000000E+00
  0.00000000E+00  0.00000000E+00  0.00000000E+00
  0.00000000E+00  0.00000000E+00  0.00000000E+00
  0.00000000E+00  0.00000000E+00  0.00000000E+00
  0.00000000E+00  0.00000000E+00  0.00000000E+00
  0.00000000E+00  0.00000000E+00  0.00000000E+00
  0.00000000E+00  0.00000000E+00  0.00000000E+00
  0.00000000E+00  0.00000000E+00  0.00000000E+00
  0.00000000E+00  0.00000000E+00  0.00000000E+00
  0.00000000E+00  0.00000000E+00  0.00000000E+00
  0.00000000E+00  0.00000000E+00  0.00000000E+00
  0.00000000E+00  0.00000000E+00  0.00000000E+00
  0.00000000E+00  0.00000000E+00  0.00000000E+00
  0.00000000E+00  0.00000000E+00  0.00000000E+00
  0.00000000E+00  0.00000000E+00  0.00000000E+00
  0.00000000E+00  0.00000000E+00  0.00000000E+00
  0.00000000E+00  0.00000000E+00  0.00000000E+00
  0.00000000E+00  0.00000000E+00  0.00000000E+00
  0.00000000E+00  0.00000000E+00  0.00000000E+00
  0.00000000E+00  0.00000000E+00  0.00000000E+00
  0.00000000E+00  0.00000000E+00  0.00000000E+00
  0.00000000E+00  0.00000000E+00  0.00000000E+00
  0.00000000E+00  0.00000000E+00  0.00000000E+00
  0.00000000E+00  0.00000000E+00  0.00000000E+00
  0.00000000E+00  0.00000000E+00  0.00000000E+00
  0.00000000E+00  0.00000000E+00  0.00000000E+00
  0.00000000E+00  0.00000000E+00  0.00000000E+00
  0.00000000E+00  0.00000000E+00  0.00000000E+00
  0.00000000E+00  0.00000000E+00  0.00000000E+00
  0.00000000E+00  0.00000000E+00  0.00000000E+00
  0.00000000E+00  0.00000000E+00  0.00000000E+00
  0.00000000E+00  0.00000000E+00  0.00000000E+00
  0.00000000E+00  0.00000000E+00  0.00000000E+00
  0.00000000E+00  0.00000000E+00  0.00000000E+00
  0.00000000E+00  0.00000000E+00  0.00000000E+00
  0.00000000E+00  0.00000000E+00  0.00000000E+00
  0.00000000E+00  0.00000000E+00  0.00000000E+00
  0.00000000E+00  0.00000000E+00  0.00000000E+00
  0.00000000E+00  0.00000000E+00  0.00000000E+00
  0.00000000E+00  0.00000000E+00  0.00000000E+00
  0.00000000E+00  0.00000000E+00  0.00000000E+00
  0.00000000E+00  0.00000000E+00  0.00000000E+00
