9                                       
   1.00000000000000     
     8.4158000945999998    0.0000000000000000    0.0000000000000000
    -4.2079000472999999    7.2882966750999998    0.0000000000000000
     0.0000000000000000    0.0000000000000000   39.1618995667000007
   Pt   O    H 
    45     6    11
Selective dynamics
Direct
  0.2222200040000004  0.1111100019999967  0.0255399999999995   F   F   F
  0.2222200040000004  0.4444499909999990  0.0255399999999995   F   F   F
  0.2222200040000004  0.7777799959999996  0.0255399999999995   F   F   F
  0.5555499789999985  0.1111100019999967  0.0255399999999995   F   F   F
  0.5555499789999985  0.4444499909999990  0.0255399999999995   F   F   F
  0.5555499789999985  0.7777799959999996  0.0255399999999995   F   F   F
  0.8888900279999987  0.1111100019999967  0.0255399999999995   F   F   F
  0.8888900279999987  0.4444499909999990  0.0255399999999995   F   F   F
  0.8888900279999987  0.7777799959999996  0.0255399999999995   F   F   F
  0.0000000000000000  0.0000000000000000  0.0840200040000028   F   F   F
  0.0000000000000000  0.3333300050000005  0.0840200040000028   F   F   F
  0.0000000000000000  0.6666700239999983  0.0840200040000028   F   F   F
  0.3333300050000005  0.0000000000000000  0.0840200040000028   F   F   F
  0.3333300050000005  0.3333300050000005  0.0840200040000028   F   F   F
  0.3333300050000005  0.6666700239999983  0.0840200040000028   F   F   F
  0.6666700239999983  0.0000000000000000  0.0840200040000028   F   F   F
  0.6666700239999983  0.3333300050000005  0.0840200040000028   F   F   F
  0.6666700239999983  0.6666700239999983  0.0840200040000028   F   F   F
  0.1109691038934257  0.2231727162856725  0.1417747819297454   T   T   T
  0.1116917267348755  0.5557589309691980  0.1414537058933423   T   T   T
  0.1105262227508322  0.8901899043927751  0.1414183468865362   T   T   T
  0.4464600343517277  0.2238529669810385  0.1419538714987686   T   T   T
  0.4460396883645645  0.5570707494721369  0.1424443967928868   T   T   T
  0.4461288985174280  0.8897372745360197  0.1418164355745737   T   T   T
  0.7779081081609430  0.2221102956303329  0.1419663886581894   T   T   T
  0.7764547046156669  0.5562513137563995  0.1420997595922745   T   T   T
  0.7770328432954038  0.8892237065811409  0.1425655426217932   T   T   T
  0.2248321007426833  0.1154539069433433  0.1991464256188627   T   T   T
  0.2242174974515578  0.4467719698398667  0.1996928042092765   T   T   T
  0.2232555238853363  0.7809022399134371  0.1984872712089429   T   T   T
  0.5579600301097973  0.1131140215499148  0.2000924658810978   T   T   T
  0.5560353464076481  0.4487793830843727  0.2013212807128490   T   T   T
  0.5588147376069950  0.7809485020241675  0.2013221642913039   T   T   T
  0.8892885652216329  0.1134014140022272  0.2001752205411576   T   T   T
  0.8897067860259090  0.4473985191039703  0.1989945857835194   T   T   T
  0.8883971899534955  0.7792673641463256  0.2002769599544038   T   T   T
  0.0062009265792040  0.0071603502774733  0.2577291232993826   T   T   T
  0.0027439055133452  0.3411930019920751  0.2579741357833019   T   T   T
  0.0058938990361578  0.6721247180610265  0.2581925796032667   T   T   T
  0.3331335292567431  0.0036595146993826  0.2577307317148388   T   T   T
  0.3344602404986946  0.3375971168471235  0.2603707772844651   T   T   T
  0.3311252156966900  0.6717378754002292  0.2578580918358128   T   T   T
  0.6682077427087294  0.0088458382995795  0.2603636931831834   T   T   T
  0.6715620431783723  0.3395232925766114  0.2583537152766598   T   T   T
  0.6726665902597259  0.6728939924302130  0.2612721432557946   T   T   T
  0.3516671802903528  0.0250385432057416  0.3435321658822447   T   T   T
  0.9618303141166702  0.6300812177590016  0.3431100936399881   T   T   T
  0.6679231747726857 -0.0101351429918304  0.3176143740232529   T   T   T
 -0.0159320855289470  0.3147244071150594  0.3439117908015169   T   T   T
  0.6797974173846970  0.6896992408352597  0.3148084486292753   T   T   T
  0.3240855739537327  0.3335727286608163  0.3208521623275237   T   T   T
  0.4481182444583483  0.0120370441883756  0.3315152605550614   T   T   T
  0.9747273235735378  0.4282647138579923  0.3398297723842357   T   T   T
  0.5622312151679324  0.5818464949762444  0.3213634164566314   T   T   T
  0.6761497863236133  0.8696167639934052  0.3194825407382529   T   T   T
  0.7848093476972022  0.0974520616628513  0.3254752428102495   T   T   T
  0.2033488293839862  0.3200396655914392  0.3269870400922072   T   T   T
  0.3241961695870641  0.2196167090642918  0.3277643148619474   T   T   T
  0.0764809693510263  0.7427605785761315  0.3377069315535841   T   T   T
  0.8637259532786512  0.6457287297384330  0.3320724484567451   T   T   T
  0.3863364969432184  0.0372763599183610  0.3675321157457927   T   T   T
 -0.0163363322379884  0.3052056969616008  0.3687250594605399   T   T   T
 
  0.00000000E+00  0.00000000E+00  0.00000000E+00
  0.00000000E+00  0.00000000E+00  0.00000000E+00
  0.00000000E+00  0.00000000E+00  0.00000000E+00
  0.00000000E+00  0.00000000E+00  0.00000000E+00
  0.00000000E+00  0.00000000E+00  0.00000000E+00
  0.00000000E+00  0.00000000E+00  0.00000000E+00
  0.00000000E+00  0.00000000E+00  0.00000000E+00
  0.00000000E+00  0.00000000E+00  0.00000000E+00
  0.00000000E+00  0.00000000E+00  0.00000000E+00
  0.00000000E+00  0.00000000E+00  0.00000000E+00
  0.00000000E+00  0.00000000E+00  0.00000000E+00
  0.00000000E+00  0.00000000E+00  0.00000000E+00
  0.00000000E+00  0.00000000E+00  0.00000000E+00
  0.00000000E+00  0.00000000E+00  0.00000000E+00
  0.00000000E+00  0.00000000E+00  0.00000000E+00
  0.00000000E+00  0.00000000E+00  0.00000000E+00
  0.00000000E+00  0.00000000E+00  0.00000000E+00
  0.00000000E+00  0.00000000E+00  0.00000000E+00
  0.00000000E+00  0.00000000E+00  0.00000000E+00
  0.00000000E+00  0.00000000E+00  0.00000000E+00
  0.00000000E+00  0.00000000E+00  0.00000000E+00
  0.00000000E+00  0.00000000E+00  0.00000000E+00
  0.00000000E+00  0.00000000E+00  0.00000000E+00
  0.00000000E+00  0.00000000E+00  0.00000000E+00
  0.00000000E+00  0.00000000E+00  0.00000000E+00
  0.00000000E+00  0.00000000E+00  0.00000000E+00
  0.00000000E+00  0.00000000E+00  0.00000000E+00
  0.00000000E+00  0.00000000E+00  0.00000000E+00
  0.00000000E+00  0.00000000E+00  0.00000000E+00
  0.00000000E+00  0.00000000E+00  0.00000000E+00
  0.00000000E+00  0.00000000E+00  0.00000000E+00
  0.00000000E+00  0.00000000E+00  0.00000000E+00
  0.00000000E+00  0.00000000E+00  0.00000000E+00
  0.00000000E+00  0.00000000E+00  0.00000000E+00
  0.00000000E+00  0.00000000E+00  0.00000000E+00
  0.00000000E+00  0.00000000E+00  0.00000000E+00
  0.00000000E+00  0.00000000E+00  0.00000000E+00
  0.00000000E+00  0.00000000E+00  0.00000000E+00
  0.00000000E+00  0.00000000E+00  0.00000000E+00
  0.00000000E+00  0.00000000E+00  0.00000000E+00
  0.00000000E+00  0.00000000E+00  0.00000000E+00
  0.00000000E+00  0.00000000E+00  0.00000000E+00
  0.00000000E+00  0.00000000E+00  0.00000000E+00
  0.00000000E+00  0.00000000E+00  0.00000000E+00
  0.00000000E+00  0.00000000E+00  0.00000000E+00
  0.00000000E+00  0.00000000E+00  0.00000000E+00
  0.00000000E+00  0.00000000E+00  0.00000000E+00
  0.00000000E+00  0.00000000E+00  0.00000000E+00
  0.00000000E+00  0.00000000E+00  0.00000000E+00
  0.00000000E+00  0.00000000E+00  0.00000000E+00
  0.00000000E+00  0.00000000E+00  0.00000000E+00
  0.00000000E+00  0.00000000E+00  0.00000000E+00
  0.00000000E+00  0.00000000E+00  0.00000000E+00
  0.00000000E+00  0.00000000E+00  0.00000000E+00
  0.00000000E+00  0.00000000E+00  0.00000000E+00
  0.00000000E+00  0.00000000E+00  0.00000000E+00
  0.00000000E+00  0.00000000E+00  0.00000000E+00
  0.00000000E+00  0.00000000E+00  0.00000000E+00
  0.00000000E+00  0.00000000E+00  0.00000000E+00
  0.00000000E+00  0.00000000E+00  0.00000000E+00
  0.00000000E+00  0.00000000E+00  0.00000000E+00
  0.00000000E+00  0.00000000E+00  0.00000000E+00
