9                                       
   1.00000000000000     
     8.4158000945999998    0.0000000000000000    0.0000000000000000
    -4.2079000472999999    7.2882966750999998    0.0000000000000000
     0.0000000000000000    0.0000000000000000   39.1618995667000007
   Pt   O    H 
    45     6     7
Selective dynamics
Direct
  0.2222200040000004  0.1111100019999967  0.0255399999999995   F   F   F
  0.2222200040000004  0.4444499909999990  0.0255399999999995   F   F   F
  0.2222200040000004  0.7777799959999996  0.0255399999999995   F   F   F
  0.5555499789999985  0.1111100019999967  0.0255399999999995   F   F   F
  0.5555499789999985  0.4444499909999990  0.0255399999999995   F   F   F
  0.5555499789999985  0.7777799959999996  0.0255399999999995   F   F   F
  0.8888900279999987  0.1111100019999967  0.0255399999999995   F   F   F
  0.8888900279999987  0.4444499909999990  0.0255399999999995   F   F   F
  0.8888900279999987  0.7777799959999996  0.0255399999999995   F   F   F
  0.0000000000000000  0.0000000000000000  0.0840200040000028   F   F   F
  0.0000000000000000  0.3333300050000005  0.0840200040000028   F   F   F
  0.0000000000000000  0.6666700239999983  0.0840200040000028   F   F   F
  0.3333300050000005  0.0000000000000000  0.0840200040000028   F   F   F
  0.3333300050000005  0.3333300050000005  0.0840200040000028   F   F   F
  0.3333300050000005  0.6666700239999983  0.0840200040000028   F   F   F
  0.6666700239999983  0.0000000000000000  0.0840200040000028   F   F   F
  0.6666700239999983  0.3333300050000005  0.0840200040000028   F   F   F
  0.6666700239999983  0.6666700239999983  0.0840200040000028   F   F   F
  0.1114780988130715  0.2221733948356877  0.1420088628873622   T   T   T
  0.1110223853451843  0.5565384762449209  0.1420277686796066   T   T   T
  0.1108355907473447  0.8901581367457807  0.1424584037119060   T   T   T
  0.4444420000210388  0.2219853696422382  0.1421740400749162   T   T   T
  0.4447852785326836  0.5558571649559788  0.1419209260942224   T   T   T
  0.4449723610575206  0.8897026640545577  0.1420154127560166   T   T   T
  0.7782873553245122  0.2225149281172346  0.1419337029150084   T   T   T
  0.7782896010191177  0.5564748858075386  0.1422253792563343   T   T   T
  0.7786918841287732  0.8889572859034064  0.1422338802734083   T   T   T
  0.2257743208310361  0.1137320419223078  0.2010577205589437   T   T   T
  0.2201943087058948  0.4423712038537988  0.1996845793011432   T   T   T
  0.2202273293039701  0.7806712744140148  0.2000553990187358   T   T   T
  0.5547091547599730  0.1093729144982847  0.2002874514759346   T   T   T
  0.5539566664996983  0.4463747699195035  0.2001915227602627   T   T   T
  0.5583744988351946  0.7802821674286342  0.1999865524607234   T   T   T
  0.8879411163247196  0.1128618482889460  0.2001457295040600   T   T   T
  0.8907516328261592  0.4458721488513354  0.2002756917480203   T   T   T
  0.8860414389831275  0.7736148701631680  0.2013958209608367   T   T   T
  0.9980809665908867 -0.0002052620112060  0.2574962023261245   T   T   T
  0.9993742291077884  0.3339864580961587  0.2594605413745229   T   T   T
  0.9964343620592915  0.6669641862894841  0.2605573519761678   T   T   T
  0.3312359736654154 -0.0007503843385193  0.2603277109808688   T   T   T
  0.3306665415611437  0.3312620478373974  0.2597939203535390   T   T   T
  0.3317378976197790  0.6679431227210388  0.2560105950366334   T   T   T
  0.6670486179931929  0.0036402161638198  0.2597420049969071   T   T   T
  0.6644604534936600  0.3343667807091152  0.2571191917958728   T   T   T
  0.6652265524721154  0.6691064895432007  0.2603809530495621   T   T   T
  0.3328640681635373  0.9803643026935609  0.3110687365997667   T   T   T
  0.0145093466499456  0.6581395100222355  0.3112529415909990   T   T   T
  0.6722454241432386  0.0072309324527401  0.3116102552201797   T   T   T
  0.0073691731067937  0.3375764400382513  0.3116025528319264   T   T   T
  0.6277567067839326  0.6623887190612370  0.3113051986739829   T   T   T
  0.3294063163083770  0.3610981194079270  0.3128668993644552   T   T   T
  0.4563896080029796  0.9978538339874318  0.3167877329540484   T   T   T
  0.0088052085146646  0.4560471768570966  0.3168071154156109   T   T   T
  0.4444503030929691  0.4912970735581815  0.3166770411204378   T   T   T
  0.6484370614300384  0.7870219556137401  0.3172185794373597   T   T   T
  0.7876297987716613  0.1226399718419314  0.3175567267935202   T   T   T
  0.2092374046021104  0.3616729899571720  0.3170570247265174   T   T   T
  0.1324458213850792  0.7731762858794345  0.3168517011009567   T   T   T
 
  0.00000000E+00  0.00000000E+00  0.00000000E+00
  0.00000000E+00  0.00000000E+00  0.00000000E+00
  0.00000000E+00  0.00000000E+00  0.00000000E+00
  0.00000000E+00  0.00000000E+00  0.00000000E+00
  0.00000000E+00  0.00000000E+00  0.00000000E+00
  0.00000000E+00  0.00000000E+00  0.00000000E+00
  0.00000000E+00  0.00000000E+00  0.00000000E+00
  0.00000000E+00  0.00000000E+00  0.00000000E+00
  0.00000000E+00  0.00000000E+00  0.00000000E+00
  0.00000000E+00  0.00000000E+00  0.00000000E+00
  0.00000000E+00  0.00000000E+00  0.00000000E+00
  0.00000000E+00  0.00000000E+00  0.00000000E+00
  0.00000000E+00  0.00000000E+00  0.00000000E+00
  0.00000000E+00  0.00000000E+00  0.00000000E+00
  0.00000000E+00  0.00000000E+00  0.00000000E+00
  0.00000000E+00  0.00000000E+00  0.00000000E+00
  0.00000000E+00  0.00000000E+00  0.00000000E+00
  0.00000000E+00  0.00000000E+00  0.00000000E+00
  0.00000000E+00  0.00000000E+00  0.00000000E+00
  0.00000000E+00  0.00000000E+00  0.00000000E+00
  0.00000000E+00  0.00000000E+00  0.00000000E+00
  0.00000000E+00  0.00000000E+00  0.00000000E+00
  0.00000000E+00  0.00000000E+00  0.00000000E+00
  0.00000000E+00  0.00000000E+00  0.00000000E+00
  0.00000000E+00  0.00000000E+00  0.00000000E+00
  0.00000000E+00  0.00000000E+00  0.00000000E+00
  0.00000000E+00  0.00000000E+00  0.00000000E+00
  0.00000000E+00  0.00000000E+00  0.00000000E+00
  0.00000000E+00  0.00000000E+00  0.00000000E+00
  0.00000000E+00  0.00000000E+00  0.00000000E+00
  0.00000000E+00  0.00000000E+00  0.00000000E+00
  0.00000000E+00  0.00000000E+00  0.00000000E+00
  0.00000000E+00  0.00000000E+00  0.00000000E+00
  0.00000000E+00  0.00000000E+00  0.00000000E+00
  0.00000000E+00  0.00000000E+00  0.00000000E+00
  0.00000000E+00  0.00000000E+00  0.00000000E+00
  0.00000000E+00  0.00000000E+00  0.00000000E+00
  0.00000000E+00  0.00000000E+00  0.00000000E+00
  0.00000000E+00  0.00000000E+00  0.00000000E+00
  0.00000000E+00  0.00000000E+00  0.00000000E+00
  0.00000000E+00  0.00000000E+00  0.00000000E+00
  0.00000000E+00  0.00000000E+00  0.00000000E+00
  0.00000000E+00  0.00000000E+00  0.00000000E+00
  0.00000000E+00  0.00000000E+00  0.00000000E+00
  0.00000000E+00  0.00000000E+00  0.00000000E+00
  0.00000000E+00  0.00000000E+00  0.00000000E+00
  0.00000000E+00  0.00000000E+00  0.00000000E+00
  0.00000000E+00  0.00000000E+00  0.00000000E+00
  0.00000000E+00  0.00000000E+00  0.00000000E+00
  0.00000000E+00  0.00000000E+00  0.00000000E+00
  0.00000000E+00  0.00000000E+00  0.00000000E+00
  0.00000000E+00  0.00000000E+00  0.00000000E+00
  0.00000000E+00  0.00000000E+00  0.00000000E+00
  0.00000000E+00  0.00000000E+00  0.00000000E+00
  0.00000000E+00  0.00000000E+00  0.00000000E+00
  0.00000000E+00  0.00000000E+00  0.00000000E+00
  0.00000000E+00  0.00000000E+00  0.00000000E+00
  0.00000000E+00  0.00000000E+00  0.00000000E+00
