Generated by VASPKIT code
 1.000000
    5.6104998588999999    0.0000000000000000    0.0000000000000000
   -2.8052499294000000    4.8588354056999998    0.0000000000000000
    0.0000000000000000    0.0000000000000000   39.1618995667000007
   Pt
    20
Selective Dynamics
Direct
    0.3333300050000005    0.1666699949999995    0.0255399999999995    F  F  F    Pt002
    0.3333300050000005    0.6666700239999983    0.0255399999999995    F  F  F    Pt001
    0.8333299760000017    0.1666699949999995    0.0255399999999995    F  F  F    Pt003
    0.8333299760000017    0.6666700239999983    0.0255399999999995    F  F  F    Pt004
    0.0000000000000000    0.0000000000000000    0.0840200040000028    F  F  F    Pt005
    0.0000000000000000    0.5000000000000000    0.0840200040000028    F  F  F    Pt006
    0.5000000000000000    0.0000000000000000    0.0840200040000028    F  F  F    Pt008
    0.5000000000000000    0.5000000000000000    0.0840200040000028    F  F  F    Pt007
    0.1666659753212676    0.3333340246787323    0.1420419103516746    T  T  T    Pt012
    0.1666659753212676    0.8333339956787337    0.1420419103516746    T  T  T    Pt010
    0.6666660043212663    0.3333340246787323    0.1420419103516746    T  T  T    Pt009
    0.6666660043212663    0.8333339956787337    0.1420419103516746    T  T  T    Pt011
    0.3333346855890070    0.1666653144109931    0.2001104327237995    T  T  T    Pt015
    0.3333346855890070    0.6666653434109918    0.2001104327237995    T  T  T    Pt014
    0.8333346565890082    0.1666653144109931    0.2001104327237995    T  T  T    Pt013
    0.8333346565890082    0.6666653434109918    0.2001104327237995    T  T  T    Pt016
    0.4999985988125503    0.0000014011874498    0.2593452959202172    T  T  T    Pt020
    0.4999985988125503    0.5000014011874498    0.2593452959202172    T  T  T    Pt017
    0.9999985988125502    0.0000014011874498    0.2593452959202172    T  T  T    Pt018
    0.9999985988125502    0.5000014011874498    0.2593452959202172    T  T  T    Pt019

