Generated by VASPKIT code
 1.000000
    5.6104998588999999    0.0000000000000000    0.0000000000000000
   -2.8052499294000000    4.8588354056999998    0.0000000000000000
    0.0000000000000000    0.0000000000000000   39.1618995667000007
   Pt   O    H 
    20     1     1
Selective Dynamics
Direct
    0.3333300050000005    0.1666699949999995    0.0255399999999995    F  F  F    Pt002
    0.3333300050000005    0.6666700239999983    0.0255399999999995    F  F  F    Pt001
    0.8333299760000017    0.1666699949999995    0.0255399999999995    F  F  F    Pt003
    0.8333299760000017    0.6666700239999983    0.0255399999999995    F  F  F    Pt004
    0.0000000000000000    0.0000000000000000    0.0840200040000028    F  F  F    Pt005
    0.0000000000000000    0.5000000000000000    0.0840200040000028    F  F  F    Pt006
    0.5000000000000000    0.0000000000000000    0.0840200040000028    F  F  F    Pt008
    0.5000000000000000    0.5000000000000000    0.0840200040000028    F  F  F    Pt007
    0.1657682638234355    0.3339303544584004    0.1422000112894346    T  T  T    Pt011
    0.1654407734488979    0.8347902602537937    0.1423703508654536    T  T  T    Pt012
    0.6655323251814728    0.3346572647421989    0.1419432074544322    T  T  T    Pt009
    0.6662701650953226    0.8344491954347011    0.1421904865123736    T  T  T    Pt010
    0.3297443857766517    0.1661870933715167    0.2007101112630401    T  T  T    Pt016
    0.3331545650704492    0.6674834874380718    0.1997615032464531    T  T  T    Pt013
    0.8335320153132005    0.1670635752709246    0.2001282443229641    T  T  T    Pt014
    0.8343906875333861    0.6708000871118474    0.2006849282893102    T  T  T    Pt015
    0.5035587543320070    0.9991349389003236    0.2583020202213769    T  T  T    Pt018
    0.5025006265258847    0.4988332127822330    0.2584265514169380    T  T  T    Pt019
    0.0033656324787088    0.9981124615453379    0.2622383959286358    T  T  T    Pt020
    0.0020793132186677    0.4977067879905299    0.2582932442649677    T  T  T    Pt017
    0.0041745845538572    0.9954111813367745    0.3128388374801235    T  T  T     O001
    0.9124597464054350    0.0965462891069714    0.3202051414520363    T  T  T     H001
