CONTCAR\(6)                             
   1.00000000000000     
     4.8587999344000004    0.0000000000000000    0.0000000000000000
     2.4293999672000002    4.2078441751000000    0.0000000000000000
     0.0000000000000000    0.0000000000000000   39.1618995667000007
   Pt   O    H 
    15     2     4
Selective dynamics
Direct
  0.3333300050000005  0.0000100000000032  0.0255399999999995   F   F   F
  0.9999899860000028  0.6666700239999983  0.0255399999999995   F   F   F
  0.6666600109999976  0.3333399890000024  0.0255399999999995   F   F   F
  0.0000000000000000  0.0000000000000000  0.0840200040000028   F   F   F
  0.6666700239999983  0.6666700239999983  0.0840200040000028   F   F   F
  0.3333300050000005  0.3333300050000005  0.0840200040000028   F   F   F
  0.9965010579229503  0.3308477103018259  0.1417840260817033   T   T   T
  0.6631896515417826 -0.0023334847936972  0.1417888922555495   T   T   T
  0.3298116832831857  0.6641712563945236  0.1417677079920578   T   T   T
  0.3254709546051218 -0.0070990622409366  0.1996075432415420   T   T   T
  0.9901231302369073  0.6609323243966234  0.1995950814154364   T   T   T
  0.6577181998336048  0.3289285814966792  0.1996490901479362   T   T   T
  0.9842684125539618 -0.0100453543632984  0.2584014525283695   T   T   T
  0.6503339335274099  0.6564083455972279  0.2592313939230785   T   T   T
  0.3173552668242313  0.3233223186143192  0.2582719890744467   T   T   T
  0.6587399131774072  0.6692905649333604  0.3353758266939208   T   T   T
  0.3424381628393838  0.3525116106866862  0.3474639764472726   T   T   T
  0.4581926290965094  0.4685936484535534  0.3412930880458932   T   T   T
  0.8920408178742670  0.5741151798869033  0.3359508132976671   T   T   T
  0.5637581406992758  0.9025330062251076  0.3358976180876765   T   T   T
  0.3419621343030924  0.3518393921639489  0.3722985057078107   T   T   T
 
  0.00000000E+00  0.00000000E+00  0.00000000E+00
  0.00000000E+00  0.00000000E+00  0.00000000E+00
  0.00000000E+00  0.00000000E+00  0.00000000E+00
  0.00000000E+00  0.00000000E+00  0.00000000E+00
  0.00000000E+00  0.00000000E+00  0.00000000E+00
  0.00000000E+00  0.00000000E+00  0.00000000E+00
  0.00000000E+00  0.00000000E+00  0.00000000E+00
  0.00000000E+00  0.00000000E+00  0.00000000E+00
  0.00000000E+00  0.00000000E+00  0.00000000E+00
  0.00000000E+00  0.00000000E+00  0.00000000E+00
  0.00000000E+00  0.00000000E+00  0.00000000E+00
  0.00000000E+00  0.00000000E+00  0.00000000E+00
  0.00000000E+00  0.00000000E+00  0.00000000E+00
  0.00000000E+00  0.00000000E+00  0.00000000E+00
  0.00000000E+00  0.00000000E+00  0.00000000E+00
  0.00000000E+00  0.00000000E+00  0.00000000E+00
  0.00000000E+00  0.00000000E+00  0.00000000E+00
  0.00000000E+00  0.00000000E+00  0.00000000E+00
  0.00000000E+00  0.00000000E+00  0.00000000E+00
  0.00000000E+00  0.00000000E+00  0.00000000E+00
  0.00000000E+00  0.00000000E+00  0.00000000E+00
