CONTCAR\(6)                             
   1.00000000000000     
     4.8587999344000004    0.0000000000000000    0.0000000000000000
     2.4293999672000002    4.2078441751000000    0.0000000000000000
     0.0000000000000000    0.0000000000000000   39.1618995667000007
   Pt   O    H 
    15     2     4
Selective dynamics
Direct
  0.3333300050000005  0.0000100000000032  0.0255399999999995   F   F   F
  0.9999899860000028  0.6666700239999983  0.0255399999999995   F   F   F
  0.6666600109999976  0.3333399890000024  0.0255399999999995   F   F   F
  0.0000000000000000  0.0000000000000000  0.0840200040000028   F   F   F
  0.6666700239999983  0.6666700239999983  0.0840200040000028   F   F   F
  0.3333300050000005  0.3333300050000005  0.0840200040000028   F   F   F
  0.9992431049862215  0.3339551867352573  0.1419211266025831   T   T   T
  0.6657278727163479  0.0011160552327034  0.1419122186782453   T   T   T
  0.3321498586877908  0.6675433807692213  0.1419024004928137   T   T   T
  0.3329630887451567  0.9995126203086637  0.1996501177701101   T   T   T
  0.9951059718831379  0.6692773598186149  0.1996552896028251   T   T   T
  0.6645520907123326  0.3374918796160017  0.1996730105893412   T   T   T
  0.9952365117331682  0.0036967355831384  0.2579105385479477   T   T   T
  0.6613071072756559  0.6704683246022130  0.2600706922482965   T   T   T
  0.3284586470932490  0.3369764362196047  0.2574723279133091   T   T   T
  0.6554790227706717  0.6678390100453018  0.3210774459801065   T   T   T
  0.3161395735841006  0.3310255923767550  0.3412461810916159   T   T   T
  0.4270178663587609  0.4416451001515360  0.3327417900999188   T   T   T
  0.8841360455018663  0.5653287859402791  0.3275578635277174   T   T   T
  0.5523385110752428  0.8967738335327394  0.3274382844892507   T   T   T
  0.3253130423541902  0.3395538633177672  0.3661382298633797   T   T   T
 
  0.00000000E+00  0.00000000E+00  0.00000000E+00
  0.00000000E+00  0.00000000E+00  0.00000000E+00
  0.00000000E+00  0.00000000E+00  0.00000000E+00
  0.00000000E+00  0.00000000E+00  0.00000000E+00
  0.00000000E+00  0.00000000E+00  0.00000000E+00
  0.00000000E+00  0.00000000E+00  0.00000000E+00
  0.00000000E+00  0.00000000E+00  0.00000000E+00
  0.00000000E+00  0.00000000E+00  0.00000000E+00
  0.00000000E+00  0.00000000E+00  0.00000000E+00
  0.00000000E+00  0.00000000E+00  0.00000000E+00
  0.00000000E+00  0.00000000E+00  0.00000000E+00
  0.00000000E+00  0.00000000E+00  0.00000000E+00
  0.00000000E+00  0.00000000E+00  0.00000000E+00
  0.00000000E+00  0.00000000E+00  0.00000000E+00
  0.00000000E+00  0.00000000E+00  0.00000000E+00
  0.00000000E+00  0.00000000E+00  0.00000000E+00
  0.00000000E+00  0.00000000E+00  0.00000000E+00
  0.00000000E+00  0.00000000E+00  0.00000000E+00
  0.00000000E+00  0.00000000E+00  0.00000000E+00
  0.00000000E+00  0.00000000E+00  0.00000000E+00
  0.00000000E+00  0.00000000E+00  0.00000000E+00
