CONTCAR\(6)                             
   1.00000000000000     
     4.8587999344000004    0.0000000000000000    0.0000000000000000
     2.4293999672000002    4.2078441751000000    0.0000000000000000
     0.0000000000000000    0.0000000000000000   39.1618995667000007
   Pt   O    H 
    15     2     4
Selective dynamics
Direct
  0.3333300050000005  0.0000100000000032  0.0255399999999995   F   F   F
  0.9999899860000028  0.6666700239999983  0.0255399999999995   F   F   F
  0.6666600109999976  0.3333399890000024  0.0255399999999995   F   F   F
  0.0000000000000000  0.0000000000000000  0.0840200040000028   F   F   F
  0.6666700239999983  0.6666700239999983  0.0840200040000028   F   F   F
  0.3333300050000005  0.3333300050000005  0.0840200040000028   F   F   F
 -0.0001129453355403  0.3331386961022909  0.1418351005034529   T   T   T
  0.6661047704866763  0.0002260576663691  0.1418287815854170   T   T   T
  0.3331048226804636  0.6658371338552238  0.1418195060651382   T   T   T
  0.3311397154550668 -0.0021928606845300  0.1995777113412326   T   T   T
  0.9974217880396899  0.6650581590725030  0.1995699140978853   T   T   T
  0.6646098296770206  0.3314923082290430  0.1995465716237119   T   T   T
  0.9942964285269299 -0.0046380338748717  0.2586078237946680   T   T   T
  0.6607888183761024  0.6622198433996648  0.2586612097320615   T   T   T
  0.3277228168015491  0.3287669714465858  0.2585750321827545   T   T   T
  0.6553698365273301  0.6633813388539397  0.3601098752299611   T   T   T
  0.3305834500940130  0.3394499742055563  0.3448435944590635   T   T   T
  0.4475777417133093  0.4568256473843465  0.3493067980300485   T   T   T
  0.8825938492311750  0.5643773791915423  0.3537842256246929   T   T   T
  0.5571335577324632  0.8903827612420478  0.3538572511561343   T   T   T
  0.3228680780464847  0.3311737244856278  0.3196295856179497   T   T   T
 
  0.00000000E+00  0.00000000E+00  0.00000000E+00
  0.00000000E+00  0.00000000E+00  0.00000000E+00
  0.00000000E+00  0.00000000E+00  0.00000000E+00
  0.00000000E+00  0.00000000E+00  0.00000000E+00
  0.00000000E+00  0.00000000E+00  0.00000000E+00
  0.00000000E+00  0.00000000E+00  0.00000000E+00
  0.00000000E+00  0.00000000E+00  0.00000000E+00
  0.00000000E+00  0.00000000E+00  0.00000000E+00
  0.00000000E+00  0.00000000E+00  0.00000000E+00
  0.00000000E+00  0.00000000E+00  0.00000000E+00
  0.00000000E+00  0.00000000E+00  0.00000000E+00
  0.00000000E+00  0.00000000E+00  0.00000000E+00
  0.00000000E+00  0.00000000E+00  0.00000000E+00
  0.00000000E+00  0.00000000E+00  0.00000000E+00
  0.00000000E+00  0.00000000E+00  0.00000000E+00
  0.00000000E+00  0.00000000E+00  0.00000000E+00
  0.00000000E+00  0.00000000E+00  0.00000000E+00
  0.00000000E+00  0.00000000E+00  0.00000000E+00
  0.00000000E+00  0.00000000E+00  0.00000000E+00
  0.00000000E+00  0.00000000E+00  0.00000000E+00
  0.00000000E+00  0.00000000E+00  0.00000000E+00
