CONTCAR\(6)                             
   1.00000000000000     
     4.8587999344000004    0.0000000000000000    0.0000000000000000
     2.4293999672000002    4.2078441751000000    0.0000000000000000
     0.0000000000000000    0.0000000000000000   39.1618995667000007
   Pt   O    H 
    15     2     4
Selective dynamics
Direct
  0.3333300050000005  0.0000100000000032  0.0255399999999995   F   F   F
  0.9999899860000028  0.6666700239999983  0.0255399999999995   F   F   F
  0.6666600109999976  0.3333399890000024  0.0255399999999995   F   F   F
  0.0000000000000000  0.0000000000000000  0.0840200040000028   F   F   F
  0.6666700239999983  0.6666700239999983  0.0840200040000028   F   F   F
  0.3333300050000005  0.3333300050000005  0.0840200040000028   F   F   F
  0.9994583889366281  0.3338276575513764  0.1418892863604512   T   T   T
  0.6651451901893507  0.0011021940489525  0.1419115941717740   T   T   T
  0.3319393262136143  0.6671687927442768  0.1419145200348070   T   T   T
  0.3337273905676268  0.9987525666129522  0.1998247136035442   T   T   T
  0.9939849921197985  0.6702310765557369  0.1998068443728187   T   T   T
  0.6655324443413447  0.3382936604427407  0.1997591750427711   T   T   T
  0.9966661143860788  0.0053198665083422  0.2579377358701168   T   T   T
  0.6633461461473654  0.6724491115618961  0.2612910751647122   T   T   T
  0.3304296224777717  0.3386525923516437  0.2571292306121005   T   T   T
  0.6562493077797166  0.6697209562421526  0.3233353752425996   T   T   T
  0.3127277384851274  0.3279574335944607  0.3370057175307076   T   T   T
  0.4254855729137274  0.4399510639175566  0.3440759872585334   T   T   T
  0.8808648957686356  0.5667039974418062  0.3313469442136426   T   T   T
  0.5523393760230976  0.8948535813488537  0.3311755028755183   T   T   T
  0.3229323970242463  0.3392028886891008  0.3114005639078911   T   T   T
 
  0.00000000E+00  0.00000000E+00  0.00000000E+00
  0.00000000E+00  0.00000000E+00  0.00000000E+00
  0.00000000E+00  0.00000000E+00  0.00000000E+00
  0.00000000E+00  0.00000000E+00  0.00000000E+00
  0.00000000E+00  0.00000000E+00  0.00000000E+00
  0.00000000E+00  0.00000000E+00  0.00000000E+00
  0.00000000E+00  0.00000000E+00  0.00000000E+00
  0.00000000E+00  0.00000000E+00  0.00000000E+00
  0.00000000E+00  0.00000000E+00  0.00000000E+00
  0.00000000E+00  0.00000000E+00  0.00000000E+00
  0.00000000E+00  0.00000000E+00  0.00000000E+00
  0.00000000E+00  0.00000000E+00  0.00000000E+00
  0.00000000E+00  0.00000000E+00  0.00000000E+00
  0.00000000E+00  0.00000000E+00  0.00000000E+00
  0.00000000E+00  0.00000000E+00  0.00000000E+00
  0.00000000E+00  0.00000000E+00  0.00000000E+00
  0.00000000E+00  0.00000000E+00  0.00000000E+00
  0.00000000E+00  0.00000000E+00  0.00000000E+00
  0.00000000E+00  0.00000000E+00  0.00000000E+00
  0.00000000E+00  0.00000000E+00  0.00000000E+00
  0.00000000E+00  0.00000000E+00  0.00000000E+00
