CONTCAR\(5)\(1\1\1)                     
   1.00000000000000     
     9.7176704406999992    0.0000000000000000    0.0000000000000000
     4.8588352202999996    8.4157494671999995    0.0000000000000000
     0.0000000000000000    0.0000000000000000   39.1618995667000007
   Pt
    60
Selective dynamics
Direct
  0.1666634979999984  0.0000034999999983  0.0255399999999995   F   F   F
  0.1666634979999984  0.5000035170000032  0.0255399999999995   F   F   F
  0.6666635269999972  0.0000034999999983  0.0255399999999995   F   F   F
  0.6666635269999972  0.5000035170000032  0.0255399999999995   F   F   F
  0.4999965129999993  0.3333365020000016  0.0255399999999995   F   F   F
  0.4999965129999993  0.8333364730000028  0.0255399999999995   F   F   F
  0.9999965430000017  0.3333365020000016  0.0255399999999995   F   F   F
  0.9999965430000017  0.8333364730000028  0.0255399999999995   F   F   F
  0.3333300050000005  0.1666699949999995  0.0255399999999995   F   F   F
  0.3333300050000005  0.6666699649999970  0.0255399999999995   F   F   F
  0.8333300350000030  0.1666699949999995  0.0255399999999995   F   F   F
  0.8333300350000030  0.6666699649999970  0.0255399999999995   F   F   F
  0.0000000000000000  0.0000000000000000  0.0840200040000028   F   F   F
  0.0000000000000000  0.5000000000000000  0.0840200040000028   F   F   F
  0.5000000000000000  0.0000000000000000  0.0840200040000028   F   F   F
  0.5000000000000000  0.5000000000000000  0.0840200040000028   F   F   F
  0.3333334920000013  0.3333334920000013  0.0840200040000028   F   F   F
  0.3333334920000013  0.8333334920000013  0.0840200040000028   F   F   F
  0.8333334920000013  0.3333334920000013  0.0840200040000028   F   F   F
  0.8333334920000013  0.8333334920000013  0.0840200040000028   F   F   F
  0.1666664930000010  0.1666664930000010  0.0840200040000028   F   F   F
  0.1666664930000010  0.6666665079999987  0.0840200040000028   F   F   F
  0.6666665079999987  0.1666664930000010  0.0840200040000028   F   F   F
  0.6666665079999987  0.6666665079999987  0.0840200040000028   F   F   F
  0.9999996419999988  0.1666673719999991  0.1420101346679018   T   T   T
 -0.0000000000000000  0.6666673419999967  0.1420101346679018   T   T   T
  0.4999996419999988  0.1666673719999991  0.1420101346679018   T   T   T
  0.4999996419999988  0.6666673419999967  0.1420101346679018   T   T   T
  0.3333326280000009  0.0000003890000002  0.1420101346679018   T   T   T
  0.3333326280000009  0.5000004170000025  0.1420101346679018   T   T   T
  0.8333326580000033  0.0000000000000000  0.1420101346679018   T   T   T
  0.8333326580000033  0.5000004170000025  0.1420101346679018   T   T   T
  0.1666661200000021  0.3333338799999979  0.1420101346679018   T   T   T
  0.1666661200000021  0.8333338500000025  0.1420101346679018   T   T   T
  0.6666661499999975  0.3333338799999979  0.1420101346679018   T   T   T
  0.6666661499999975  0.8333338500000025  0.1420101346679018   T   T   T
  0.1666680720000002  0.9999989270000000  0.2000158281216693   T   T   T
  0.1666680720000002  0.4999989270000000  0.2000158281216693   T   T   T
  0.6666680570000025  0.9999989270000000  0.2000158281216693   T   T   T
  0.6666680570000025  0.4999989270000000  0.2000158281216693   T   T   T
  0.0000010850000010  0.3333319429999975  0.2000158281216693   T   T   T
  0.0000010850000010  0.8333319429999975  0.2000158281216693   T   T   T
  0.5000010730000000  0.3333319429999975  0.2000158281216693   T   T   T
  0.5000010730000000  0.8333319429999975  0.2000158281216693   T   T   T
  0.3333345650000012  0.1666654200000011  0.2000158281216693   T   T   T
  0.3333345650000012  0.6666654349999988  0.2000158281216693   T   T   T
  0.8333345650000012  0.1666654200000011  0.2000158281216693   T   T   T
  0.8333345650000012  0.6666654349999988  0.2000158281216693   T   T   T
  0.9999991059999971  0.0000008700000009  0.2591240685939844   T   T   T
 -0.0000000000000000  0.5000008940000029  0.2591240685939844   T   T   T
  0.4999990459999992  0.0000000000000000  0.2591240685939844   T   T   T
  0.4999990459999992  0.5000008940000029  0.2591240685939844   T   T   T
  0.3333326280000009  0.3333343569999982  0.2591240685939844   T   T   T
  0.3333326280000009  0.8333343270000029  0.2591240685939844   T   T   T
  0.8333326580000033  0.3333343569999982  0.2591240685939844   T   T   T
  0.8333326580000033  0.8333343270000029  0.2591240685939844   T   T   T
  0.1666656290000006  0.1666673570000015  0.2591240685939844   T   T   T
  0.1666656290000006  0.6666673419999967  0.2591240685939844   T   T   T
  0.6666656140000029  0.1666673570000015  0.2591240685939844   T   T   T
  0.6666656140000029  0.6666673419999967  0.2591240685939844   T   T   T
 
  0.00000000E+00  0.00000000E+00  0.00000000E+00
  0.00000000E+00  0.00000000E+00  0.00000000E+00
  0.00000000E+00  0.00000000E+00  0.00000000E+00
  0.00000000E+00  0.00000000E+00  0.00000000E+00
  0.00000000E+00  0.00000000E+00  0.00000000E+00
  0.00000000E+00  0.00000000E+00  0.00000000E+00
  0.00000000E+00  0.00000000E+00  0.00000000E+00
  0.00000000E+00  0.00000000E+00  0.00000000E+00
  0.00000000E+00  0.00000000E+00  0.00000000E+00
  0.00000000E+00  0.00000000E+00  0.00000000E+00
  0.00000000E+00  0.00000000E+00  0.00000000E+00
  0.00000000E+00  0.00000000E+00  0.00000000E+00
  0.00000000E+00  0.00000000E+00  0.00000000E+00
  0.00000000E+00  0.00000000E+00  0.00000000E+00
  0.00000000E+00  0.00000000E+00  0.00000000E+00
  0.00000000E+00  0.00000000E+00  0.00000000E+00
  0.00000000E+00  0.00000000E+00  0.00000000E+00
  0.00000000E+00  0.00000000E+00  0.00000000E+00
  0.00000000E+00  0.00000000E+00  0.00000000E+00
  0.00000000E+00  0.00000000E+00  0.00000000E+00
  0.00000000E+00  0.00000000E+00  0.00000000E+00
  0.00000000E+00  0.00000000E+00  0.00000000E+00
  0.00000000E+00  0.00000000E+00  0.00000000E+00
  0.00000000E+00  0.00000000E+00  0.00000000E+00
  0.00000000E+00  0.00000000E+00  0.00000000E+00
  0.00000000E+00  0.00000000E+00  0.00000000E+00
  0.00000000E+00  0.00000000E+00  0.00000000E+00
  0.00000000E+00  0.00000000E+00  0.00000000E+00
  0.00000000E+00  0.00000000E+00  0.00000000E+00
  0.00000000E+00  0.00000000E+00  0.00000000E+00
  0.00000000E+00  0.00000000E+00  0.00000000E+00
  0.00000000E+00  0.00000000E+00  0.00000000E+00
  0.00000000E+00  0.00000000E+00  0.00000000E+00
  0.00000000E+00  0.00000000E+00  0.00000000E+00
  0.00000000E+00  0.00000000E+00  0.00000000E+00
  0.00000000E+00  0.00000000E+00  0.00000000E+00
  0.00000000E+00  0.00000000E+00  0.00000000E+00
  0.00000000E+00  0.00000000E+00  0.00000000E+00
  0.00000000E+00  0.00000000E+00  0.00000000E+00
  0.00000000E+00  0.00000000E+00  0.00000000E+00
  0.00000000E+00  0.00000000E+00  0.00000000E+00
  0.00000000E+00  0.00000000E+00  0.00000000E+00
  0.00000000E+00  0.00000000E+00  0.00000000E+00
  0.00000000E+00  0.00000000E+00  0.00000000E+00
  0.00000000E+00  0.00000000E+00  0.00000000E+00
  0.00000000E+00  0.00000000E+00  0.00000000E+00
  0.00000000E+00  0.00000000E+00  0.00000000E+00
  0.00000000E+00  0.00000000E+00  0.00000000E+00
  0.00000000E+00  0.00000000E+00  0.00000000E+00
  0.00000000E+00  0.00000000E+00  0.00000000E+00
  0.00000000E+00  0.00000000E+00  0.00000000E+00
  0.00000000E+00  0.00000000E+00  0.00000000E+00
  0.00000000E+00  0.00000000E+00  0.00000000E+00
  0.00000000E+00  0.00000000E+00  0.00000000E+00
  0.00000000E+00  0.00000000E+00  0.00000000E+00
  0.00000000E+00  0.00000000E+00  0.00000000E+00
  0.00000000E+00  0.00000000E+00  0.00000000E+00
  0.00000000E+00  0.00000000E+00  0.00000000E+00
  0.00000000E+00  0.00000000E+00  0.00000000E+00
  0.00000000E+00  0.00000000E+00  0.00000000E+00
