CONTCAR\(6)                             
   1.00000000000000     
     4.8587999344000004    0.0000000000000000    0.0000000000000000
     2.4293999672000002    4.2078441751000000    0.0000000000000000
     0.0000000000000000    0.0000000000000000   39.1618995667000007
   Pt   O    H 
    15     2     4
Selective dynamics
Direct
  0.3333300050000005  0.0000100000000032  0.0255399999999995   F   F   F
  0.9999899860000028  0.6666700239999983  0.0255399999999995   F   F   F
  0.6666600109999976  0.3333399890000024  0.0255399999999995   F   F   F
  0.0000000000000000  0.0000000000000000  0.0840200040000028   F   F   F
  0.6666700239999983  0.6666700239999983  0.0840200040000028   F   F   F
  0.3333300050000005  0.3333300050000005  0.0840200040000028   F   F   F
 -0.0002933962947193  0.3343078070153714  0.1417491227105687   T   T   T
  0.6658884856737035  0.0014594577442438  0.1417785860113826   T   T   T
  0.3328888062737330  0.6676316355690748  0.1417818459744437   T   T   T
  0.3333671392142546 -0.0008156068292454  0.1995078139936837   T   T   T
  0.9949930866864963  0.6696885080935161  0.1994444482074271   T   T   T
  0.6654804222435371  0.3376165220367714  0.1995348963050194   T   T   T
  0.9955728357825203  0.0027455952162756  0.2578880204337773   T   T   T
  0.6619280607589565  0.6700063468638100  0.2603098751447367   T   T   T
  0.3285834402351700  0.3363975487021701  0.2571859037230518   T   T   T
  0.6539952102638057  0.6667395709340268  0.3279290451652054   T   T   T
  0.3199390113215447  0.3336552059357847  0.3373783555289633   T   T   T
  0.4372519347424980  0.4507991050649298  0.3403668934302869   T   T   T
  0.8816897066957283  0.5661106246360675  0.3345938941157836   T   T   T
  0.5533190004940916  0.8943720092968525  0.3344923964490859   T   T   T
  0.3123022933725477  0.3267520469469180  0.3118181027604719   T   T   T
 
  0.00000000E+00  0.00000000E+00  0.00000000E+00
  0.00000000E+00  0.00000000E+00  0.00000000E+00
  0.00000000E+00  0.00000000E+00  0.00000000E+00
  0.00000000E+00  0.00000000E+00  0.00000000E+00
  0.00000000E+00  0.00000000E+00  0.00000000E+00
  0.00000000E+00  0.00000000E+00  0.00000000E+00
  0.00000000E+00  0.00000000E+00  0.00000000E+00
  0.00000000E+00  0.00000000E+00  0.00000000E+00
  0.00000000E+00  0.00000000E+00  0.00000000E+00
  0.00000000E+00  0.00000000E+00  0.00000000E+00
  0.00000000E+00  0.00000000E+00  0.00000000E+00
  0.00000000E+00  0.00000000E+00  0.00000000E+00
  0.00000000E+00  0.00000000E+00  0.00000000E+00
  0.00000000E+00  0.00000000E+00  0.00000000E+00
  0.00000000E+00  0.00000000E+00  0.00000000E+00
  0.00000000E+00  0.00000000E+00  0.00000000E+00
  0.00000000E+00  0.00000000E+00  0.00000000E+00
  0.00000000E+00  0.00000000E+00  0.00000000E+00
  0.00000000E+00  0.00000000E+00  0.00000000E+00
  0.00000000E+00  0.00000000E+00  0.00000000E+00
  0.00000000E+00  0.00000000E+00  0.00000000E+00
