CONTCAR\(6)                             
   1.00000000000000     
     4.8587999344000004    0.0000000000000000    0.0000000000000000
     2.4293999672000002    4.2078441751000000    0.0000000000000000
     0.0000000000000000    0.0000000000000000   39.1618995667000007
   Pt   O    H 
    15     2     4
Selective dynamics
Direct
  0.3333300050000005  0.0000100000000032  0.0255399999999995   F   F   F
  0.9999899860000028  0.6666700239999983  0.0255399999999995   F   F   F
  0.6666600109999976  0.3333399890000024  0.0255399999999995   F   F   F
  0.0000000000000000  0.0000000000000000  0.0840200040000028   F   F   F
  0.6666700239999983  0.6666700239999983  0.0840200040000028   F   F   F
  0.3333300050000005  0.3333300050000005  0.0840200040000028   F   F   F
  0.9992431049862205  0.3339551867352597  0.1419211266025826   T   T   T
  0.6657278727163458  0.0011160552326999  0.1419122186782431   T   T   T
  0.3321498586877922  0.6675433807692244  0.1419024004928104   T   T   T
  0.3329630887451600  0.9995126203086642  0.1996501177701120   T   T   T
  0.9951059718831345  0.6692773598186150  0.1996552896028234   T   T   T
  0.6645520907123341  0.3374918796160031  0.1996730105893434   T   T   T
  0.9952365117331681  0.0036967355831408  0.2579105385479465   T   T   T
  0.6613071072756540  0.6704683246022114  0.2600706922482985   T   T   T
  0.3284586470932496  0.3369764362196079  0.2574723279133124   T   T   T
  0.6554790227706704  0.6678390100452987  0.3210774459801087   T   T   T
  0.3161395735841026  0.3310255923767542  0.3412461810916128   T   T   T
  0.4270178663587600  0.4416451001515327  0.3327417900999166   T   T   T
  0.8841360455018688  0.5653287859402809  0.3275578635277157   T   T   T
  0.5523385110752415  0.8967738335327411  0.3274382844892472   T   T   T
  0.3253130423541890  0.3395538633177679  0.3661382298633811   T   T   T
 
  0.00000000E+00  0.00000000E+00  0.00000000E+00
  0.00000000E+00  0.00000000E+00  0.00000000E+00
  0.00000000E+00  0.00000000E+00  0.00000000E+00
  0.00000000E+00  0.00000000E+00  0.00000000E+00
  0.00000000E+00  0.00000000E+00  0.00000000E+00
  0.00000000E+00  0.00000000E+00  0.00000000E+00
  0.00000000E+00  0.00000000E+00  0.00000000E+00
  0.00000000E+00  0.00000000E+00  0.00000000E+00
  0.00000000E+00  0.00000000E+00  0.00000000E+00
  0.00000000E+00  0.00000000E+00  0.00000000E+00
  0.00000000E+00  0.00000000E+00  0.00000000E+00
  0.00000000E+00  0.00000000E+00  0.00000000E+00
  0.00000000E+00  0.00000000E+00  0.00000000E+00
  0.00000000E+00  0.00000000E+00  0.00000000E+00
  0.00000000E+00  0.00000000E+00  0.00000000E+00
  0.00000000E+00  0.00000000E+00  0.00000000E+00
  0.00000000E+00  0.00000000E+00  0.00000000E+00
  0.00000000E+00  0.00000000E+00  0.00000000E+00
  0.00000000E+00  0.00000000E+00  0.00000000E+00
  0.00000000E+00  0.00000000E+00  0.00000000E+00
  0.00000000E+00  0.00000000E+00  0.00000000E+00
