CONTCAR\(6)                             
   1.00000000000000     
     4.8587999344000004    0.0000000000000000    0.0000000000000000
     2.4293999672000002    4.2078441751000000    0.0000000000000000
     0.0000000000000000    0.0000000000000000   39.1618995667000007
   Pt   O    H 
    15     2     4
Selective dynamics
Direct
  0.3333300050000005  0.0000100000000032  0.0255399999999995   F   F   F
  0.9999899860000028  0.6666700239999983  0.0255399999999995   F   F   F
  0.6666600109999976  0.3333399890000024  0.0255399999999995   F   F   F
  0.0000000000000000  0.0000000000000000  0.0840200040000028   F   F   F
  0.6666700239999983  0.6666700239999983  0.0840200040000028   F   F   F
  0.3333300050000005  0.3333300050000005  0.0840200040000028   F   F   F
  0.9998635758867798  0.3329691978122014  0.1417894773053123   T   T   T
  0.6660386053566847  0.9998968459917041  0.1417866081094081   T   T   T
  0.3329227932281653  0.6660613315488287  0.1417850314760076   T   T   T
  0.3310483712258793  0.9978626853377373  0.1995998940463802   T   T   T
  0.9974626097298414  0.6649165016734363  0.1996044008262356   T   T   T
  0.6644990080295671  0.3314736476534609  0.1995984835116091   T   T   T
  0.9943901441882880  0.9955066002248255  0.2586145974411130   T   T   T
  0.6609441874648090  0.6622581053047989  0.2586756900181581   T   T   T
  0.3278280077241619  0.3288998183138397  0.2585834468708987   T   T   T
  0.6553731756910186  0.6633143424331633  0.3601678210527344   T   T   T
  0.3306933343847944  0.3395330859477917  0.3448574071389586   T   T   T
  0.4477530334679373  0.4569246303955931  0.3493225568997852   T   T   T
  0.8823227899914803  0.5643290704613598  0.3537991145237241   T   T   T
  0.5569669802504539  0.8902113116648098  0.3538598829774651   T   T   T
  0.3229702655455677  0.3312700947516573  0.3196624435113935   T   T   T
 
  0.00000000E+00  0.00000000E+00  0.00000000E+00
  0.00000000E+00  0.00000000E+00  0.00000000E+00
  0.00000000E+00  0.00000000E+00  0.00000000E+00
  0.00000000E+00  0.00000000E+00  0.00000000E+00
  0.00000000E+00  0.00000000E+00  0.00000000E+00
  0.00000000E+00  0.00000000E+00  0.00000000E+00
  0.00000000E+00  0.00000000E+00  0.00000000E+00
  0.00000000E+00  0.00000000E+00  0.00000000E+00
  0.00000000E+00  0.00000000E+00  0.00000000E+00
  0.00000000E+00  0.00000000E+00  0.00000000E+00
  0.00000000E+00  0.00000000E+00  0.00000000E+00
  0.00000000E+00  0.00000000E+00  0.00000000E+00
  0.00000000E+00  0.00000000E+00  0.00000000E+00
  0.00000000E+00  0.00000000E+00  0.00000000E+00
  0.00000000E+00  0.00000000E+00  0.00000000E+00
  0.00000000E+00  0.00000000E+00  0.00000000E+00
  0.00000000E+00  0.00000000E+00  0.00000000E+00
  0.00000000E+00  0.00000000E+00  0.00000000E+00
  0.00000000E+00  0.00000000E+00  0.00000000E+00
  0.00000000E+00  0.00000000E+00  0.00000000E+00
  0.00000000E+00  0.00000000E+00  0.00000000E+00
