CONTCAR\(6)                             
   1.00000000000000     
     4.8587999344000004    0.0000000000000000    0.0000000000000000
     2.4293999672000002    4.2078441751000000    0.0000000000000000
     0.0000000000000000    0.0000000000000000   39.1618995667000007
   Pt   O    H 
    15     2     4
Selective dynamics
Direct
  0.3333300050000005  0.0000100000000032  0.0255399999999995   F   F   F
  0.9999899860000028  0.6666700239999983  0.0255399999999995   F   F   F
  0.6666600109999976  0.3333399890000024  0.0255399999999995   F   F   F
  0.0000000000000000  0.0000000000000000  0.0840200040000028   F   F   F
  0.6666700239999983  0.6666700239999983  0.0840200040000028   F   F   F
  0.3333300050000005  0.3333300050000005  0.0840200040000028   F   F   F
  0.9992677127692381  0.3339306273913126  0.1419436548517016   T   T   T
  0.6657259584052342  0.0011493069761655  0.1419346859311587   T   T   T
  0.3321452585691207  0.6675334932069799  0.1419235658250131   T   T   T
  0.3329387336842919  0.9995910428723048  0.1996662372457649   T   T   T
  0.9951791481278908  0.6693221710031542  0.1996702022562627   T   T   T
  0.6645949125701005  0.3374730940717814  0.1996908635415710   T   T   T
  0.9953360398033297  0.0038067376596210  0.2579415570354294   T   T   T
  0.6614330924126554  0.6706235165863108  0.2600324032904969   T   T   T
  0.3285476497138892  0.3370998235015938  0.2574942253083515   T   T   T
  0.6554175740347425  0.6678418830900721  0.3211167359620494   T   T   T
  0.3160455335719553  0.3309611524655491  0.3412260616135304   T   T   T
  0.4267685750338326  0.4414470074845687  0.3326696436852427   T   T   T
  0.8838692835901610  0.5654109289067769  0.3274987161312574   T   T   T
  0.5523518481826696  0.8965757105357615  0.3273818077754466   T   T   T
  0.3253606425978191  0.3396104288858475  0.3661173796865292   T   T   T
 
  0.00000000E+00  0.00000000E+00  0.00000000E+00
  0.00000000E+00  0.00000000E+00  0.00000000E+00
  0.00000000E+00  0.00000000E+00  0.00000000E+00
  0.00000000E+00  0.00000000E+00  0.00000000E+00
  0.00000000E+00  0.00000000E+00  0.00000000E+00
  0.00000000E+00  0.00000000E+00  0.00000000E+00
  0.00000000E+00  0.00000000E+00  0.00000000E+00
  0.00000000E+00  0.00000000E+00  0.00000000E+00
  0.00000000E+00  0.00000000E+00  0.00000000E+00
  0.00000000E+00  0.00000000E+00  0.00000000E+00
  0.00000000E+00  0.00000000E+00  0.00000000E+00
  0.00000000E+00  0.00000000E+00  0.00000000E+00
  0.00000000E+00  0.00000000E+00  0.00000000E+00
  0.00000000E+00  0.00000000E+00  0.00000000E+00
  0.00000000E+00  0.00000000E+00  0.00000000E+00
  0.00000000E+00  0.00000000E+00  0.00000000E+00
  0.00000000E+00  0.00000000E+00  0.00000000E+00
  0.00000000E+00  0.00000000E+00  0.00000000E+00
  0.00000000E+00  0.00000000E+00  0.00000000E+00
  0.00000000E+00  0.00000000E+00  0.00000000E+00
  0.00000000E+00  0.00000000E+00  0.00000000E+00
