CONTCAR\(6)                             
   1.00000000000000     
     4.8587999344000004    0.0000000000000000    0.0000000000000000
     2.4293999672000002    4.2078441751000000    0.0000000000000000
     0.0000000000000000    0.0000000000000000   39.1618995667000007
   Pt   O    H 
    15     2     4
Selective dynamics
Direct
  0.3333300050000005  0.0000100000000032  0.0255399999999995   F   F   F
  0.9999899860000028  0.6666700239999983  0.0255399999999995   F   F   F
  0.6666600109999976  0.3333399890000024  0.0255399999999995   F   F   F
  0.0000000000000000  0.0000000000000000  0.0840200040000028   F   F   F
  0.6666700239999983  0.6666700239999983  0.0840200040000028   F   F   F
  0.3333300050000005  0.3333300050000005  0.0840200040000028   F   F   F
  0.9993538316273020  0.3337960860128157  0.1419288120878422   T   T   T
  0.6651076944749265  0.0011100473449954  0.1419428689372431   T   T   T
  0.3319289230973934  0.6670245486608463  0.1419445886701900   T   T   T
  0.3337040358140569  0.9987648208122953  0.1998135357866401   T   T   T
  0.9939149400480070  0.6700737239997320  0.1998007559987763   T   T   T
  0.6653928801360132  0.3383399737524347  0.1997489627729478   T   T   T
  0.9967581698027633  0.0053504904681323  0.2579257300787858   T   T   T
  0.6632439750797317  0.6724336750915384  0.2612345166827414   T   T   T
  0.3304722253288337  0.3386740991800050  0.2571815038890052   T   T   T
  0.6558408727403828  0.6694106248354983  0.3234833519763822   T   T   T
  0.3128743941240275  0.3281580550503345  0.3370340850030705   T   T   T
  0.4258867024449370  0.4403437390387138  0.3439674532269369   T   T   T
  0.8807676406910820  0.5667514155388458  0.3313017381537842   T   T   T
  0.5523327905892345  0.8947803424545352  0.3311259547519727   T   T   T
  0.3228971120595182  0.3392575129506575  0.3113716195939296   T   T   T
 
  0.00000000E+00  0.00000000E+00  0.00000000E+00
  0.00000000E+00  0.00000000E+00  0.00000000E+00
  0.00000000E+00  0.00000000E+00  0.00000000E+00
  0.00000000E+00  0.00000000E+00  0.00000000E+00
  0.00000000E+00  0.00000000E+00  0.00000000E+00
  0.00000000E+00  0.00000000E+00  0.00000000E+00
  0.00000000E+00  0.00000000E+00  0.00000000E+00
  0.00000000E+00  0.00000000E+00  0.00000000E+00
  0.00000000E+00  0.00000000E+00  0.00000000E+00
  0.00000000E+00  0.00000000E+00  0.00000000E+00
  0.00000000E+00  0.00000000E+00  0.00000000E+00
  0.00000000E+00  0.00000000E+00  0.00000000E+00
  0.00000000E+00  0.00000000E+00  0.00000000E+00
  0.00000000E+00  0.00000000E+00  0.00000000E+00
  0.00000000E+00  0.00000000E+00  0.00000000E+00
  0.00000000E+00  0.00000000E+00  0.00000000E+00
  0.00000000E+00  0.00000000E+00  0.00000000E+00
  0.00000000E+00  0.00000000E+00  0.00000000E+00
  0.00000000E+00  0.00000000E+00  0.00000000E+00
  0.00000000E+00  0.00000000E+00  0.00000000E+00
  0.00000000E+00  0.00000000E+00  0.00000000E+00
