CONTCAR\(6)                             
   1.00000000000000     
     4.8587999344000004    0.0000000000000000    0.0000000000000000
     2.4293999672000002    4.2078441751000000    0.0000000000000000
     0.0000000000000000    0.0000000000000000   39.1618995667000007
   Pt   O    H 
    15     2     4
Selective dynamics
Direct
  0.3333300050000005  0.0000100000000032  0.0255399999999995   F   F   F
  0.9999899860000028  0.6666700239999983  0.0255399999999995   F   F   F
  0.6666600109999976  0.3333399890000024  0.0255399999999995   F   F   F
  0.0000000000000000  0.0000000000000000  0.0840200040000028   F   F   F
  0.6666700239999983  0.6666700239999983  0.0840200040000028   F   F   F
  0.3333300050000005  0.3333300050000005  0.0840200040000028   F   F   F
  0.9994758138860589  0.3325774004530668  0.1418070515684929   T   T   T
  0.6655835315327735  0.9995243545949904  0.1418111736098735   T   T   T
  0.3324999394005358  0.6656637348282715  0.1418128600363530   T   T   T
  0.3307845093140033  0.9978271560611153  0.1997010517604902   T   T   T
  0.9973227743936990  0.6646374496953201  0.1997043898458349   T   T   T
  0.6641587150347382  0.3312878178268061  0.1997004358140431   T   T   T
  0.9950041918446343  0.9960657574935449  0.2587282285197205   T   T   T
  0.6615952724149753  0.6627828332404243  0.2587697135729638   T   T   T
  0.3283780884251771  0.3294200572627635  0.2588145413147293   T   T   T
  0.6562172832305303  0.6643447453621346  0.3609441318328087   T   T   T
  0.3311808159654308  0.3398594277109316  0.3449876140789401   T   T   T
  0.4483374121996724  0.4571324522675155  0.3492913098285920   T   T   T
  0.8810516047768582  0.5639088701767472  0.3536378187171498   T   T   T
  0.5561309038578940  0.8890706548161057  0.3536531536413452   T   T   T
  0.3229503647932018  0.3312371345389760  0.3197312300729581   T   T   T
 
  0.00000000E+00  0.00000000E+00  0.00000000E+00
  0.00000000E+00  0.00000000E+00  0.00000000E+00
  0.00000000E+00  0.00000000E+00  0.00000000E+00
  0.00000000E+00  0.00000000E+00  0.00000000E+00
  0.00000000E+00  0.00000000E+00  0.00000000E+00
  0.00000000E+00  0.00000000E+00  0.00000000E+00
  0.00000000E+00  0.00000000E+00  0.00000000E+00
  0.00000000E+00  0.00000000E+00  0.00000000E+00
  0.00000000E+00  0.00000000E+00  0.00000000E+00
  0.00000000E+00  0.00000000E+00  0.00000000E+00
  0.00000000E+00  0.00000000E+00  0.00000000E+00
  0.00000000E+00  0.00000000E+00  0.00000000E+00
  0.00000000E+00  0.00000000E+00  0.00000000E+00
  0.00000000E+00  0.00000000E+00  0.00000000E+00
  0.00000000E+00  0.00000000E+00  0.00000000E+00
  0.00000000E+00  0.00000000E+00  0.00000000E+00
  0.00000000E+00  0.00000000E+00  0.00000000E+00
  0.00000000E+00  0.00000000E+00  0.00000000E+00
  0.00000000E+00  0.00000000E+00  0.00000000E+00
  0.00000000E+00  0.00000000E+00  0.00000000E+00
  0.00000000E+00  0.00000000E+00  0.00000000E+00
