CONTCAR\(6)                             
   1.00000000000000     
     4.8587999344000004    0.0000000000000000    0.0000000000000000
     2.4293999672000002    4.2078441751000000    0.0000000000000000
     0.0000000000000000    0.0000000000000000   39.1618995667000007
   Pt   O    H 
    15     2     4
Selective dynamics
Direct
  0.3333300050000005  0.0000100000000032  0.0255399999999995   F   F   F
  0.9999899860000028  0.6666700239999983  0.0255399999999995   F   F   F
  0.6666600109999976  0.3333399890000024  0.0255399999999995   F   F   F
  0.0000000000000000  0.0000000000000000  0.0840200040000028   F   F   F
  0.6666700239999983  0.6666700239999983  0.0840200040000028   F   F   F
  0.3333300050000005  0.3333300050000005  0.0840200040000028   F   F   F
  0.9993222174904872  0.3337960438483663  0.1419380187790580   T   T   T
  0.6651007588190723  0.0011084250802682  0.1419501820017430   T   T   T
  0.3319353670030694  0.6669889041632970  0.1419514228477183   T   T   T
  0.3337117465343979  0.9987572563295899  0.1998104824687204   T   T   T
  0.9938896095355290  0.6700329751741236  0.1997983992226580   T   T   T
  0.6653604632161318  0.3383663006506623  0.1997459679942963   T   T   T
  0.9967803803806135  0.0053576166409428  0.2579211888539064   T   T   T
  0.6632235610074062  0.6724357648307802  0.2612460487663739   T   T   T
  0.3304830857045218  0.3386811173176767  0.2571863689253959   T   T   T
  0.6558196233739224  0.6693305322576180  0.3234759445839046   T   T   T
  0.3129487335663583  0.3282473506972821  0.3370038207224511   T   T   T
  0.4258985526792785  0.4403550970827155  0.3439560539524393   T   T   T
  0.8807390385717468  0.5667434910800893  0.3313016322686053   T   T   T
  0.5522906398032816  0.8948063195709679  0.3311265798374450   T   T   T
  0.3228966936985955  0.3392779055039057  0.3113897031302670   T   T   T
 
  0.00000000E+00  0.00000000E+00  0.00000000E+00
  0.00000000E+00  0.00000000E+00  0.00000000E+00
  0.00000000E+00  0.00000000E+00  0.00000000E+00
  0.00000000E+00  0.00000000E+00  0.00000000E+00
  0.00000000E+00  0.00000000E+00  0.00000000E+00
  0.00000000E+00  0.00000000E+00  0.00000000E+00
  0.00000000E+00  0.00000000E+00  0.00000000E+00
  0.00000000E+00  0.00000000E+00  0.00000000E+00
  0.00000000E+00  0.00000000E+00  0.00000000E+00
  0.00000000E+00  0.00000000E+00  0.00000000E+00
  0.00000000E+00  0.00000000E+00  0.00000000E+00
  0.00000000E+00  0.00000000E+00  0.00000000E+00
  0.00000000E+00  0.00000000E+00  0.00000000E+00
  0.00000000E+00  0.00000000E+00  0.00000000E+00
  0.00000000E+00  0.00000000E+00  0.00000000E+00
  0.00000000E+00  0.00000000E+00  0.00000000E+00
  0.00000000E+00  0.00000000E+00  0.00000000E+00
  0.00000000E+00  0.00000000E+00  0.00000000E+00
  0.00000000E+00  0.00000000E+00  0.00000000E+00
  0.00000000E+00  0.00000000E+00  0.00000000E+00
  0.00000000E+00  0.00000000E+00  0.00000000E+00
