CONTCAR\(6)                             
   1.00000000000000     
     4.8587999344000004    0.0000000000000000    0.0000000000000000
     2.4293999672000002    4.2078441751000000    0.0000000000000000
     0.0000000000000000    0.0000000000000000   39.1618995667000007
   Pt   O    H 
    15     2     4
Selective dynamics
Direct
  0.3333300050000005  0.0000100000000032  0.0255399999999995   F   F   F
  0.9999899860000028  0.6666700239999983  0.0255399999999995   F   F   F
  0.6666600109999976  0.3333399890000024  0.0255399999999995   F   F   F
  0.0000000000000000  0.0000000000000000  0.0840200040000028   F   F   F
  0.6666700239999983  0.6666700239999983  0.0840200040000028   F   F   F
  0.3333300050000005  0.3333300050000005  0.0840200040000028   F   F   F
  0.9992554455783278  0.3340026334363628  0.1418380906127155   T   T   T
  0.6657233963289784  0.0010893415652475  0.1418159500398843   T   T   T
  0.3320606003750584  0.6675194183624598  0.1418275942730958   T   T   T
  0.3323971394890819  0.0000239324865703  0.1994988973451797   T   T   T
  0.9954645568580176  0.6691184040942701  0.1995259330426222   T   T   T
  0.6644468155167189  0.3368265216755049  0.1994938179251875   T   T   T
  0.9949808960569655  0.0033073734044251  0.2578788791899171   T   T   T
  0.6607035121657887  0.6697048548309894  0.2598750648305170   T   T   T
  0.3281817418206643  0.3366790547127891  0.2574372045194622   T   T   T
  0.6547374765307481  0.6670139474147234  0.3217586235620971   T   T   T
  0.3165841658912001  0.3313627723887294  0.3414177045875135   T   T   T
  0.4275424461211301  0.4419629227682265  0.3329303176361549   T   T   T
  0.8846897676469965  0.5655276859971252  0.3275421844670205   T   T   T
  0.5527820841966005  0.8970888178981298  0.3274085875444328   T   T   T
  0.3262077892070678  0.3404212188992446  0.3662839521650483   T   T   T
 
  0.00000000E+00  0.00000000E+00  0.00000000E+00
  0.00000000E+00  0.00000000E+00  0.00000000E+00
  0.00000000E+00  0.00000000E+00  0.00000000E+00
  0.00000000E+00  0.00000000E+00  0.00000000E+00
  0.00000000E+00  0.00000000E+00  0.00000000E+00
  0.00000000E+00  0.00000000E+00  0.00000000E+00
  0.00000000E+00  0.00000000E+00  0.00000000E+00
  0.00000000E+00  0.00000000E+00  0.00000000E+00
  0.00000000E+00  0.00000000E+00  0.00000000E+00
  0.00000000E+00  0.00000000E+00  0.00000000E+00
  0.00000000E+00  0.00000000E+00  0.00000000E+00
  0.00000000E+00  0.00000000E+00  0.00000000E+00
  0.00000000E+00  0.00000000E+00  0.00000000E+00
  0.00000000E+00  0.00000000E+00  0.00000000E+00
  0.00000000E+00  0.00000000E+00  0.00000000E+00
  0.00000000E+00  0.00000000E+00  0.00000000E+00
  0.00000000E+00  0.00000000E+00  0.00000000E+00
  0.00000000E+00  0.00000000E+00  0.00000000E+00
  0.00000000E+00  0.00000000E+00  0.00000000E+00
  0.00000000E+00  0.00000000E+00  0.00000000E+00
  0.00000000E+00  0.00000000E+00  0.00000000E+00
