CONTCAR\(6)                             
   1.00000000000000     
     4.8587999344000004    0.0000000000000000    0.0000000000000000
     2.4293999672000002    4.2078441751000000    0.0000000000000000
     0.0000000000000000    0.0000000000000000   39.1618995667000007
   Pt   O    H 
    15     2     4
Selective dynamics
Direct
  0.3333300050000005  0.0000100000000032  0.0255399999999995   F   F   F
  0.9999899860000028  0.6666700239999983  0.0255399999999995   F   F   F
  0.6666600109999976  0.3333399890000024  0.0255399999999995   F   F   F
  0.0000000000000000  0.0000000000000000  0.0840200040000028   F   F   F
  0.6666700239999983  0.6666700239999983  0.0840200040000028   F   F   F
  0.3333300050000005  0.3333300050000005  0.0840200040000028   F   F   F
  0.9991518352462236  0.3339330873348985  0.1419010599163357   T   T   T
  0.6656833051493294  0.0011213681585005  0.1419013761883363   T   T   T
  0.3322126600056308  0.6675044648788813  0.1418782948633535   T   T   T
  0.3330730676715703  0.9989568864146747  0.1996392075649851   T   T   T
  0.9947498191089679  0.6689646117191614  0.1996179428620337   T   T   T
  0.6642826857174526  0.3376993814270364  0.1996907884800336   T   T   T
  0.9947932108813262  0.0030412318505171  0.2577891423594849   T   T   T
  0.6610171587451390  0.6700165935747506  0.2603842234229745   T   T   T
  0.3279106638215339  0.3363464725681382  0.2574015360795840   T   T   T
  0.6574672921175591  0.6693832654486727  0.3205753767503339   T   T   T
  0.3165873553483252  0.3312418934053696  0.3412550583270502   T   T   T
  0.4281161926649446  0.4424694671504952  0.3332290845821291   T   T   T
  0.8846410639609701  0.5652905201753526  0.3277983690862527   T   T   T
  0.5527051774427179  0.8968830002141459  0.3276794573872408   T   T   T
  0.3240083307356940  0.3381315522732535  0.3661876119958336   T   T   T
 
  0.00000000E+00  0.00000000E+00  0.00000000E+00
  0.00000000E+00  0.00000000E+00  0.00000000E+00
  0.00000000E+00  0.00000000E+00  0.00000000E+00
  0.00000000E+00  0.00000000E+00  0.00000000E+00
  0.00000000E+00  0.00000000E+00  0.00000000E+00
  0.00000000E+00  0.00000000E+00  0.00000000E+00
  0.00000000E+00  0.00000000E+00  0.00000000E+00
  0.00000000E+00  0.00000000E+00  0.00000000E+00
  0.00000000E+00  0.00000000E+00  0.00000000E+00
  0.00000000E+00  0.00000000E+00  0.00000000E+00
  0.00000000E+00  0.00000000E+00  0.00000000E+00
  0.00000000E+00  0.00000000E+00  0.00000000E+00
  0.00000000E+00  0.00000000E+00  0.00000000E+00
  0.00000000E+00  0.00000000E+00  0.00000000E+00
  0.00000000E+00  0.00000000E+00  0.00000000E+00
  0.00000000E+00  0.00000000E+00  0.00000000E+00
  0.00000000E+00  0.00000000E+00  0.00000000E+00
  0.00000000E+00  0.00000000E+00  0.00000000E+00
  0.00000000E+00  0.00000000E+00  0.00000000E+00
  0.00000000E+00  0.00000000E+00  0.00000000E+00
  0.00000000E+00  0.00000000E+00  0.00000000E+00
