CONTCAR\(6)                             
   1.00000000000000     
     4.8587999344000004    0.0000000000000000    0.0000000000000000
     2.4293999672000002    4.2078441751000000    0.0000000000000000
     0.0000000000000000    0.0000000000000000   39.1618995667000007
   Pt   O    H 
    15     2     4
Selective dynamics
Direct
  0.3333300050000005  0.0000100000000032  0.0255399999999995   F   F   F
  0.9999899860000028  0.6666700239999983  0.0255399999999995   F   F   F
  0.6666600109999976  0.3333399890000024  0.0255399999999995   F   F   F
  0.0000000000000000  0.0000000000000000  0.0840200040000028   F   F   F
  0.6666700239999983  0.6666700239999983  0.0840200040000028   F   F   F
  0.3333300050000005  0.3333300050000005  0.0840200040000028   F   F   F
  0.9989941103331077  0.3339303923523289  0.1419118447782566   T   T   T
  0.6656107754147627  0.0011044773125803  0.1419244473551800   T   T   T
  0.3323589975589485  0.6674046480628064  0.1418852383824074   T   T   T
  0.3335175446414453  0.9983324670387148  0.1997819147792583   T   T   T
  0.9943618884429952  0.6687328955397618  0.1997183910645504   T   T   T
  0.6640956362198764  0.3382538952721177  0.1998839551908205   T   T   T
  0.9948990119110519  0.0027649963333261  0.2577625949786793   T   T   T
  0.6613926656432554  0.6702129761483420  0.2607049113301940   T   T   T
  0.3277406431639278  0.3362189211172861  0.2574093590430095   T   T   T
  0.6603789950549341  0.6716425490021507  0.3199250729596201   T   T   T
  0.3163341154462529  0.3307476172300881  0.3410746190565774   T   T   T
  0.4286073248187208  0.4426849926960514  0.3336688695119889   T   T   T
  0.8861338039053877  0.5652966048152308  0.3277555484381622   T   T   T
  0.5532156964849548  0.8978196288889251  0.3276497960155211   T   T   T
  0.3203136567866594  0.3342332838660553  0.3660688337183302   T   T   T
 
  0.00000000E+00  0.00000000E+00  0.00000000E+00
  0.00000000E+00  0.00000000E+00  0.00000000E+00
  0.00000000E+00  0.00000000E+00  0.00000000E+00
  0.00000000E+00  0.00000000E+00  0.00000000E+00
  0.00000000E+00  0.00000000E+00  0.00000000E+00
  0.00000000E+00  0.00000000E+00  0.00000000E+00
  0.00000000E+00  0.00000000E+00  0.00000000E+00
  0.00000000E+00  0.00000000E+00  0.00000000E+00
  0.00000000E+00  0.00000000E+00  0.00000000E+00
  0.00000000E+00  0.00000000E+00  0.00000000E+00
  0.00000000E+00  0.00000000E+00  0.00000000E+00
  0.00000000E+00  0.00000000E+00  0.00000000E+00
  0.00000000E+00  0.00000000E+00  0.00000000E+00
  0.00000000E+00  0.00000000E+00  0.00000000E+00
  0.00000000E+00  0.00000000E+00  0.00000000E+00
  0.00000000E+00  0.00000000E+00  0.00000000E+00
  0.00000000E+00  0.00000000E+00  0.00000000E+00
  0.00000000E+00  0.00000000E+00  0.00000000E+00
  0.00000000E+00  0.00000000E+00  0.00000000E+00
  0.00000000E+00  0.00000000E+00  0.00000000E+00
  0.00000000E+00  0.00000000E+00  0.00000000E+00
