9                                       
   1.00000000000000     
     8.4158000945999998    0.0000000000000000    0.0000000000000000
    -4.2079000472999999    7.2882966750999998    0.0000000000000000
     0.0000000000000000    0.0000000000000000   39.1618995667000007
   Pt   O    H 
    45     6     8
Selective dynamics
Direct
  0.2222200040000004  0.1111100019999967  0.0255399999999995   F   F   F
  0.2222200040000004  0.4444499909999990  0.0255399999999995   F   F   F
  0.2222200040000004  0.7777799959999996  0.0255399999999995   F   F   F
  0.5555499789999985  0.1111100019999967  0.0255399999999995   F   F   F
  0.5555499789999985  0.4444499909999990  0.0255399999999995   F   F   F
  0.5555499789999985  0.7777799959999996  0.0255399999999995   F   F   F
  0.8888900279999987  0.1111100019999967  0.0255399999999995   F   F   F
  0.8888900279999987  0.4444499909999990  0.0255399999999995   F   F   F
  0.8888900279999987  0.7777799959999996  0.0255399999999995   F   F   F
  0.0000000000000000  0.0000000000000000  0.0840200040000028   F   F   F
  0.0000000000000000  0.3333300050000005  0.0840200040000028   F   F   F
  0.0000000000000000  0.6666700239999983  0.0840200040000028   F   F   F
  0.3333300050000005  0.0000000000000000  0.0840200040000028   F   F   F
  0.3333300050000005  0.3333300050000005  0.0840200040000028   F   F   F
  0.3333300050000005  0.6666700239999983  0.0840200040000028   F   F   F
  0.6666700239999983  0.0000000000000000  0.0840200040000028   F   F   F
  0.6666700239999983  0.3333300050000005  0.0840200040000028   F   F   F
  0.6666700239999983  0.6666700239999983  0.0840200040000028   F   F   F
  0.1113070044930930  0.2220025876943844  0.1417724852999897   T   T   T
  0.1113501319894841  0.5556774235399641  0.1421559868398347   T   T   T
  0.1103939742767314  0.8877718558064351  0.1421917008191625   T   T   T
  0.4453439375882266  0.2215487022622407  0.1420403830163398   T   T   T
  0.4449190533385967  0.5552768082832412  0.1420568811880572   T   T   T
  0.4445077178140183  0.8883869668759631  0.1420479887323736   T   T   T
  0.7776303407350582  0.2215551500788775  0.1418888268434606   T   T   T
  0.7774241084894215  0.5546267528923058  0.1425182149015303   T   T   T
  0.7785603676481632  0.8876231041611735  0.1420668438587585   T   T   T
  0.2251750752761868  0.1122398647630155  0.1996383596819404   T   T   T
  0.2213999987952870  0.4424185382199717  0.1999331179680275   T   T   T
  0.2216278752410476  0.7800510887035578  0.2004142077428576   T   T   T
  0.5550149215452893  0.1091918006027690  0.2003143329850843   T   T   T
  0.5545195098728706  0.4458900956638765  0.2006054717016760   T   T   T
  0.5591189950935831  0.7789165745130837  0.1999510634175035   T   T   T
  0.8884421328723408  0.1116251603623847  0.1995659937449425   T   T   T
  0.8922944712147943  0.4446163205772523  0.2003971588355551   T   T   T
  0.8875847254288154  0.7716745749459596  0.2012318209281399   T   T   T
  0.0012070102889385  0.0003393357386221  0.2564378067049911   T   T   T
  0.0014783360100013  0.3323018966837454  0.2594840203443570   T   T   T
  0.0016616300882424  0.6675154827277188  0.2609857915923965   T   T   T
  0.3340037622419505  0.0024925734105916  0.2600950954049454   T   T   T
  0.3373442427789854  0.3372961065569810  0.2592709690033704   T   T   T
  0.3344953930440325  0.6687578770526599  0.2567891630505580   T   T   T
  0.6662264447171981  0.0041336062223624  0.2590242932148654   T   T   T
  0.6693857364342738  0.3376107131770949  0.2574127050735893   T   T   T
  0.6685989059332057  0.6708844060403527  0.2608427378340334   T   T   T
  0.3282737851925998  0.0155263749174813  0.3128758416088303   T   T   T
  0.0266053670933819  0.6520413348836918  0.3117046425735402   T   T   T
  0.6770697803418267  0.0031006212104368  0.3136803307680616   T   T   T
  0.0045727861013517  0.3156919748167615  0.3123959576014024   T   T   T
  0.6598918220644640  0.6990312996040897  0.3127198545291367   T   T   T
  0.3167863156350342  0.3209575863764023  0.3141643708176684   T   T   T
  0.4441482927608912  0.0234397063478371  0.3201141810842104   T   T   T
  0.0148405319693025  0.4360610426111042  0.3187292162311804   T   T   T
  0.5499971438642745  0.5880237984590176  0.3208395856492131   T   T   T
  0.6724154586155127  0.8738565402675252  0.3173009159731134   T   T   T
  0.8017066318031231  0.1140030760331332  0.3185109042976498   T   T   T
  0.1900534394857015  0.3101362979244539  0.3177829197566654   T   T   T
  0.3145083998026501  0.1990337327024430  0.3183560571538981   T   T   T
  0.1306112908851013  0.7746602951118131  0.3179611656715826   T   T   T
 
  0.00000000E+00  0.00000000E+00  0.00000000E+00
  0.00000000E+00  0.00000000E+00  0.00000000E+00
  0.00000000E+00  0.00000000E+00  0.00000000E+00
  0.00000000E+00  0.00000000E+00  0.00000000E+00
  0.00000000E+00  0.00000000E+00  0.00000000E+00
  0.00000000E+00  0.00000000E+00  0.00000000E+00
  0.00000000E+00  0.00000000E+00  0.00000000E+00
  0.00000000E+00  0.00000000E+00  0.00000000E+00
  0.00000000E+00  0.00000000E+00  0.00000000E+00
  0.00000000E+00  0.00000000E+00  0.00000000E+00
  0.00000000E+00  0.00000000E+00  0.00000000E+00
  0.00000000E+00  0.00000000E+00  0.00000000E+00
  0.00000000E+00  0.00000000E+00  0.00000000E+00
  0.00000000E+00  0.00000000E+00  0.00000000E+00
  0.00000000E+00  0.00000000E+00  0.00000000E+00
  0.00000000E+00  0.00000000E+00  0.00000000E+00
  0.00000000E+00  0.00000000E+00  0.00000000E+00
  0.00000000E+00  0.00000000E+00  0.00000000E+00
  0.00000000E+00  0.00000000E+00  0.00000000E+00
  0.00000000E+00  0.00000000E+00  0.00000000E+00
  0.00000000E+00  0.00000000E+00  0.00000000E+00
  0.00000000E+00  0.00000000E+00  0.00000000E+00
  0.00000000E+00  0.00000000E+00  0.00000000E+00
  0.00000000E+00  0.00000000E+00  0.00000000E+00
  0.00000000E+00  0.00000000E+00  0.00000000E+00
  0.00000000E+00  0.00000000E+00  0.00000000E+00
  0.00000000E+00  0.00000000E+00  0.00000000E+00
  0.00000000E+00  0.00000000E+00  0.00000000E+00
  0.00000000E+00  0.00000000E+00  0.00000000E+00
  0.00000000E+00  0.00000000E+00  0.00000000E+00
  0.00000000E+00  0.00000000E+00  0.00000000E+00
  0.00000000E+00  0.00000000E+00  0.00000000E+00
  0.00000000E+00  0.00000000E+00  0.00000000E+00
  0.00000000E+00  0.00000000E+00  0.00000000E+00
  0.00000000E+00  0.00000000E+00  0.00000000E+00
  0.00000000E+00  0.00000000E+00  0.00000000E+00
  0.00000000E+00  0.00000000E+00  0.00000000E+00
  0.00000000E+00  0.00000000E+00  0.00000000E+00
  0.00000000E+00  0.00000000E+00  0.00000000E+00
  0.00000000E+00  0.00000000E+00  0.00000000E+00
  0.00000000E+00  0.00000000E+00  0.00000000E+00
  0.00000000E+00  0.00000000E+00  0.00000000E+00
  0.00000000E+00  0.00000000E+00  0.00000000E+00
  0.00000000E+00  0.00000000E+00  0.00000000E+00
  0.00000000E+00  0.00000000E+00  0.00000000E+00
  0.00000000E+00  0.00000000E+00  0.00000000E+00
  0.00000000E+00  0.00000000E+00  0.00000000E+00
  0.00000000E+00  0.00000000E+00  0.00000000E+00
  0.00000000E+00  0.00000000E+00  0.00000000E+00
  0.00000000E+00  0.00000000E+00  0.00000000E+00
  0.00000000E+00  0.00000000E+00  0.00000000E+00
  0.00000000E+00  0.00000000E+00  0.00000000E+00
  0.00000000E+00  0.00000000E+00  0.00000000E+00
  0.00000000E+00  0.00000000E+00  0.00000000E+00
  0.00000000E+00  0.00000000E+00  0.00000000E+00
  0.00000000E+00  0.00000000E+00  0.00000000E+00
  0.00000000E+00  0.00000000E+00  0.00000000E+00
  0.00000000E+00  0.00000000E+00  0.00000000E+00
  0.00000000E+00  0.00000000E+00  0.00000000E+00
