CONTCAR\(6)                             
   1.00000000000000     
     4.8587999344000004    0.0000000000000000    0.0000000000000000
     2.4293999672000002    4.2078441751000000    0.0000000000000000
     0.0000000000000000    0.0000000000000000   39.1618995667000007
   Pt   O    H 
    15     2     4
Selective dynamics
Direct
  0.3333300050000005  0.0000100000000032  0.0255399999999995   F   F   F
  0.9999899860000028  0.6666700239999983  0.0255399999999995   F   F   F
  0.6666600109999976  0.3333399890000024  0.0255399999999995   F   F   F
  0.0000000000000000  0.0000000000000000  0.0840200040000028   F   F   F
  0.6666700239999983  0.6666700239999983  0.0840200040000028   F   F   F
  0.3333300050000005  0.3333300050000005  0.0840200040000028   F   F   F
  0.9991826026411061  0.3339489554364761  0.1418953212789020   T   T   T
  0.6656951618897295  0.0011177320920623  0.1418944478341899   T   T   T
  0.3321942693423381  0.6675199911297938  0.1418734047645600   T   T   T
  0.3331613692475983  0.9989567413239513  0.1996483321604785   T   T   T
  0.9947281610041898  0.6690061125923989  0.1996322432520046   T   T   T
  0.6643100575679810  0.3377812826452811  0.1996914445048148   T   T   T
  0.9948231847827103  0.0031614512421569  0.2577912129931974   T   T   T
  0.6610382182423393  0.6700806065477565  0.2602785642140972   T   T   T
  0.3280101893373839  0.3364143818893339  0.2573911478691215   T   T   T
  0.6570991685166305  0.6691291450692702  0.3207200163749988   T   T   T
  0.3166754798054470  0.3313856753294360  0.3412887259971029   T   T   T
  0.4279764496810117  0.4423865426055258  0.3330797811808353   T   T   T
  0.8844321199383458  0.5651741940858912  0.3277666148266576   T   T   T
  0.5524915989100734  0.8967858127506858  0.3276462903930764   T   T   T
  0.3242865455721713  0.3384463955342980  0.3662082768024106   T   T   T
 
  0.00000000E+00  0.00000000E+00  0.00000000E+00
  0.00000000E+00  0.00000000E+00  0.00000000E+00
  0.00000000E+00  0.00000000E+00  0.00000000E+00
  0.00000000E+00  0.00000000E+00  0.00000000E+00
  0.00000000E+00  0.00000000E+00  0.00000000E+00
  0.00000000E+00  0.00000000E+00  0.00000000E+00
  0.00000000E+00  0.00000000E+00  0.00000000E+00
  0.00000000E+00  0.00000000E+00  0.00000000E+00
  0.00000000E+00  0.00000000E+00  0.00000000E+00
  0.00000000E+00  0.00000000E+00  0.00000000E+00
  0.00000000E+00  0.00000000E+00  0.00000000E+00
  0.00000000E+00  0.00000000E+00  0.00000000E+00
  0.00000000E+00  0.00000000E+00  0.00000000E+00
  0.00000000E+00  0.00000000E+00  0.00000000E+00
  0.00000000E+00  0.00000000E+00  0.00000000E+00
  0.00000000E+00  0.00000000E+00  0.00000000E+00
  0.00000000E+00  0.00000000E+00  0.00000000E+00
  0.00000000E+00  0.00000000E+00  0.00000000E+00
  0.00000000E+00  0.00000000E+00  0.00000000E+00
  0.00000000E+00  0.00000000E+00  0.00000000E+00
  0.00000000E+00  0.00000000E+00  0.00000000E+00
