CONTCAR\(6)                             
   1.00000000000000     
     4.8587999344000004    0.0000000000000000    0.0000000000000000
     2.4293999672000002    4.2078441751000000    0.0000000000000000
     0.0000000000000000    0.0000000000000000   39.1618995667000007
   Pt   O    H 
    15     2     4
Selective dynamics
Direct
  0.3333300050000005  0.0000100000000032  0.0255399999999995   F   F   F
  0.9999899860000028  0.6666700239999983  0.0255399999999995   F   F   F
  0.6666600109999976  0.3333399890000024  0.0255399999999995   F   F   F
  0.0000000000000000  0.0000000000000000  0.0840200040000028   F   F   F
  0.6666700239999983  0.6666700239999983  0.0840200040000028   F   F   F
  0.3333300050000005  0.3333300050000005  0.0840200040000028   F   F   F
  0.9990823395317889  0.3339678206526955  0.1418872789209615   T   T   T
  0.6656648519110178  0.0010757452148908  0.1418905122264178   T   T   T
  0.3322688540465251  0.6674802738894527  0.1418642550660678   T   T   T
  0.3332506193666518  0.9987077519150844  0.1996799422663855   T   T   T
  0.9945650704105304  0.6688787643979452  0.1996485614502390   T   T   T
  0.6642065500774024  0.3378998939814437  0.1997425268083148   T   T   T
  0.9947614154797080  0.0029216459911865  0.2577699647798255   T   T   T
  0.6610404329351667  0.6699957580199012  0.2604993642408857   T   T   T
  0.3278162101687414  0.3362572088210811  0.2573940745129235   T   T   T
  0.6582194502585068  0.6701770962495459  0.3203716833589567   T   T   T
  0.3166664070691638  0.3312472670255886  0.3412167157119939   T   T   T
  0.4283290522927246  0.4426096913671529  0.3333454461299183   T   T   T
  0.8849234701183519  0.5651754998445284  0.3278255134216224   T   T   T
  0.5527715876823578  0.8969060114612972  0.3277056053276084   T   T   T
  0.3232151714897853  0.3372891035990406  0.3661869487085099   T   T   T
 
  0.00000000E+00  0.00000000E+00  0.00000000E+00
  0.00000000E+00  0.00000000E+00  0.00000000E+00
  0.00000000E+00  0.00000000E+00  0.00000000E+00
  0.00000000E+00  0.00000000E+00  0.00000000E+00
  0.00000000E+00  0.00000000E+00  0.00000000E+00
  0.00000000E+00  0.00000000E+00  0.00000000E+00
  0.00000000E+00  0.00000000E+00  0.00000000E+00
  0.00000000E+00  0.00000000E+00  0.00000000E+00
  0.00000000E+00  0.00000000E+00  0.00000000E+00
  0.00000000E+00  0.00000000E+00  0.00000000E+00
  0.00000000E+00  0.00000000E+00  0.00000000E+00
  0.00000000E+00  0.00000000E+00  0.00000000E+00
  0.00000000E+00  0.00000000E+00  0.00000000E+00
  0.00000000E+00  0.00000000E+00  0.00000000E+00
  0.00000000E+00  0.00000000E+00  0.00000000E+00
  0.00000000E+00  0.00000000E+00  0.00000000E+00
  0.00000000E+00  0.00000000E+00  0.00000000E+00
  0.00000000E+00  0.00000000E+00  0.00000000E+00
  0.00000000E+00  0.00000000E+00  0.00000000E+00
  0.00000000E+00  0.00000000E+00  0.00000000E+00
  0.00000000E+00  0.00000000E+00  0.00000000E+00
