CONTCAR\(6)                             
   1.00000000000000     
     4.8587999344000004    0.0000000000000000    0.0000000000000000
     2.4293999672000002    4.2078441751000000    0.0000000000000000
     0.0000000000000000    0.0000000000000000   39.1618995667000007
   Pt   O    H 
    15     2     4
Selective dynamics
Direct
  0.3333300050000005  0.0000100000000032  0.0255399999999995   F   F   F
  0.9999899860000028  0.6666700239999983  0.0255399999999995   F   F   F
  0.6666600109999976  0.3333399890000024  0.0255399999999995   F   F   F
  0.0000000000000000  0.0000000000000000  0.0840200040000028   F   F   F
  0.6666700239999983  0.6666700239999983  0.0840200040000028   F   F   F
  0.3333300050000005  0.3333300050000005  0.0840200040000028   F   F   F
  0.9998851990063296  0.3329815144048505  0.1417896621506061   T   T   T
  0.6660470335056958 -0.0000887469529010  0.1417859863473482   T   T   T
  0.3329341618888222  0.6660755301846483  0.1417840570556204   T   T   T
  0.3310570063195876  0.9978615821824217  0.1996007924232094   T   T   T
  0.9974678285084190  0.6649278602571130  0.1996058596473286   T   T   T
  0.6645095276557171  0.3314792568960741  0.1996003185423687   T   T   T
  0.9943709870608165  0.9954878784528181  0.2586150557688925   T   T   T
  0.6609234747777879  0.6622431144099048  0.2586733748520098   T   T   T
  0.3278101903187984  0.3288823963912249  0.2585891827753101   T   T   T
  0.6555169742166089  0.6633003620383843  0.3601892996973293   T   T   T
  0.3306809465672684  0.3395312816833296  0.3448877553648269   T   T   T
  0.4476950906781275  0.4568825940933702  0.3493028217339472   T   T   T
  0.8822854874214905  0.5643601686922285  0.3537809232328331   T   T   T
  0.5569672711994414  0.8902690596719977  0.3538403601696719   T   T   T
  0.3229433178393344  0.3312418621789051  0.3196368109307422   T   T   T
 
  0.00000000E+00  0.00000000E+00  0.00000000E+00
  0.00000000E+00  0.00000000E+00  0.00000000E+00
  0.00000000E+00  0.00000000E+00  0.00000000E+00
  0.00000000E+00  0.00000000E+00  0.00000000E+00
  0.00000000E+00  0.00000000E+00  0.00000000E+00
  0.00000000E+00  0.00000000E+00  0.00000000E+00
  0.00000000E+00  0.00000000E+00  0.00000000E+00
  0.00000000E+00  0.00000000E+00  0.00000000E+00
  0.00000000E+00  0.00000000E+00  0.00000000E+00
  0.00000000E+00  0.00000000E+00  0.00000000E+00
  0.00000000E+00  0.00000000E+00  0.00000000E+00
  0.00000000E+00  0.00000000E+00  0.00000000E+00
  0.00000000E+00  0.00000000E+00  0.00000000E+00
  0.00000000E+00  0.00000000E+00  0.00000000E+00
  0.00000000E+00  0.00000000E+00  0.00000000E+00
  0.00000000E+00  0.00000000E+00  0.00000000E+00
  0.00000000E+00  0.00000000E+00  0.00000000E+00
  0.00000000E+00  0.00000000E+00  0.00000000E+00
  0.00000000E+00  0.00000000E+00  0.00000000E+00
  0.00000000E+00  0.00000000E+00  0.00000000E+00
  0.00000000E+00  0.00000000E+00  0.00000000E+00
