CONTCAR\(6)                             
   1.00000000000000     
     4.8587999344000004    0.0000000000000000    0.0000000000000000
     2.4293999672000002    4.2078441751000000    0.0000000000000000
     0.0000000000000000    0.0000000000000000   39.1618995667000007
   Pt   O    H 
    15     2     4
Selective dynamics
Direct
  0.3333300050000005  0.0000100000000032  0.0255399999999995   F   F   F
  0.9999899860000028  0.6666700239999983  0.0255399999999995   F   F   F
  0.6666600109999976  0.3333399890000024  0.0255399999999995   F   F   F
  0.0000000000000000  0.0000000000000000  0.0840200040000028   F   F   F
  0.6666700239999983  0.6666700239999983  0.0840200040000028   F   F   F
  0.3333300050000005  0.3333300050000005  0.0840200040000028   F   F   F
  0.9993609528492297  0.3325156683061875  0.1417458524840321   T   T   T
  0.6655764014635307  0.9994300077428365  0.1417521299974659   T   T   T
  0.3324321340967831  0.6656623812036447  0.1417551023914580   T   T   T
  0.3308444657342555  0.9975860904904275  0.1995711641370597   T   T   T
  0.9970577005678956  0.6648046804278133  0.1995702974812085   T   T   T
  0.6643424202795429  0.3313700169131865  0.1995626650108795   T   T   T
  0.9951207484610438  0.9962046252899799  0.2585566081809209   T   T   T
  0.6617282668381689  0.6628842838521413  0.2587010483840429   T   T   T
  0.3285720514201586  0.3295882454853046  0.2584079781559673   T   T   T
  0.6527442054347937  0.6608195093146830  0.3594132056046385   T   T   T
  0.3314631009675964  0.3401277477290290  0.3450079600383939   T   T   T
  0.4486664160654261  0.4573496991093204  0.3497872612089812   T   T   T
  0.8821790785007310  0.5637881495850248  0.3544816756405713   T   T   T
  0.5559310039438592  0.8902302461268750  0.3544929944762191   T   T   T
  0.3246929365341342  0.3330782722594430  0.3198810100369564   T   T   T
 
  0.00000000E+00  0.00000000E+00  0.00000000E+00
  0.00000000E+00  0.00000000E+00  0.00000000E+00
  0.00000000E+00  0.00000000E+00  0.00000000E+00
  0.00000000E+00  0.00000000E+00  0.00000000E+00
  0.00000000E+00  0.00000000E+00  0.00000000E+00
  0.00000000E+00  0.00000000E+00  0.00000000E+00
  0.00000000E+00  0.00000000E+00  0.00000000E+00
  0.00000000E+00  0.00000000E+00  0.00000000E+00
  0.00000000E+00  0.00000000E+00  0.00000000E+00
  0.00000000E+00  0.00000000E+00  0.00000000E+00
  0.00000000E+00  0.00000000E+00  0.00000000E+00
  0.00000000E+00  0.00000000E+00  0.00000000E+00
  0.00000000E+00  0.00000000E+00  0.00000000E+00
  0.00000000E+00  0.00000000E+00  0.00000000E+00
  0.00000000E+00  0.00000000E+00  0.00000000E+00
  0.00000000E+00  0.00000000E+00  0.00000000E+00
  0.00000000E+00  0.00000000E+00  0.00000000E+00
  0.00000000E+00  0.00000000E+00  0.00000000E+00
  0.00000000E+00  0.00000000E+00  0.00000000E+00
  0.00000000E+00  0.00000000E+00  0.00000000E+00
  0.00000000E+00  0.00000000E+00  0.00000000E+00
