CONTCAR\(5)\(1\1\1)                     
   1.00000000000000     
     9.7176704406999992    0.0000000000000000    0.0000000000000000
     0.0000000000000000    5.6104998588999999    0.0000000000000000
     0.0000000000000000    0.0000000000000000   39.1618995667000007
   Pt
    40
Selective dynamics
Direct
  0.1666650029999985  0.0000050000000016  0.0255399999999995   F   F   F
  0.1666650029999985  0.5000050069999986  0.0255399999999995   F   F   F
  0.6666650180000033  0.0000050000000016  0.0255399999999995   F   F   F
  0.6666650180000033  0.5000050069999986  0.0255399999999995   F   F   F
  0.4166649880000008  0.2500050069999986  0.0255399999999995   F   F   F
  0.4166649880000008  0.7500050069999986  0.0255399999999995   F   F   F
  0.9166650180000033  0.2500050069999986  0.0255399999999995   F   F   F
  0.9166650180000033  0.7500050069999986  0.0255399999999995   F   F   F
  0.0000000000000000  0.0000000000000000  0.0840200040000028   F   F   F
  0.0000000000000000  0.5000000000000000  0.0840200040000028   F   F   F
  0.5000000000000000  0.0000000000000000  0.0840200040000028   F   F   F
  0.5000000000000000  0.5000000000000000  0.0840200040000028   F   F   F
  0.2500000000000000  0.2500000000000000  0.0840200040000028   F   F   F
  0.2500000000000000  0.7500000000000000  0.0840200040000028   F   F   F
  0.7500000000000000  0.2500000000000000  0.0840200040000028   F   F   F
  0.7500000000000000  0.7500000000000000  0.0840200040000028   F   F   F
  0.0868756480451616  0.2499979917145484  0.1418248559199842   T   T   T
  0.0868756480451616  0.7499979917145482  0.1418248559199842   T   T   T
  0.5868756330451567  0.2499979917145484  0.1418248559199842   T   T   T
  0.5868756330451567  0.7499979917145482  0.1418248559199842   T   T   T
  0.3368756630451593  0.4999979917145481  0.1418248559199842   T   T   T
  0.3368756630451593 -0.0000020082854517  0.1418248559199842   T   T   T
  0.8368756330451567  0.4999979917145481  0.1418248559199842   T   T   T
  0.8368756330451567 -0.0000020082854517  0.1418248559199842   T   T   T
  0.1744977263540387 -0.0000021244545376  0.1996669815022531   T   T   T
  0.1744977263540387  0.4999978825454592  0.1996669815022531   T   T   T
  0.6744977413540434 -0.0000021244545376  0.1996669815022531   T   T   T
  0.6744977413540434  0.4999978825454592  0.1996669815022531   T   T   T
  0.4244977113540408  0.2499978825454595  0.1996669815022531   T   T   T
  0.4244977113540408  0.7499978825454591  0.1996669815022531   T   T   T
  0.9244977413540434  0.2499978825454595  0.1996669815022531   T   T   T
  0.9244977413540434  0.7499978825454591  0.1996669815022531   T   T   T
  0.0116291961795301 -0.0000032174816444  0.2587196701912363   T   T   T
  0.0116291961795301  0.4999967825183556  0.2587196701912363   T   T   T
  0.5116291961795301 -0.0000032174816444  0.2587196701912363   T   T   T
  0.5116291961795301  0.4999967825183556  0.2587196701912363   T   T   T
  0.2616291961795303  0.2499967825183555  0.2587196701912363   T   T   T
  0.2616291961795303  0.7499967825183554  0.2587196701912363   T   T   T
  0.7616291961795301  0.2499967825183555  0.2587196701912363   T   T   T
  0.7616291961795301  0.7499967825183554  0.2587196701912363   T   T   T
 
  0.00000000E+00  0.00000000E+00  0.00000000E+00
  0.00000000E+00  0.00000000E+00  0.00000000E+00
  0.00000000E+00  0.00000000E+00  0.00000000E+00
  0.00000000E+00  0.00000000E+00  0.00000000E+00
  0.00000000E+00  0.00000000E+00  0.00000000E+00
  0.00000000E+00  0.00000000E+00  0.00000000E+00
  0.00000000E+00  0.00000000E+00  0.00000000E+00
  0.00000000E+00  0.00000000E+00  0.00000000E+00
  0.00000000E+00  0.00000000E+00  0.00000000E+00
  0.00000000E+00  0.00000000E+00  0.00000000E+00
  0.00000000E+00  0.00000000E+00  0.00000000E+00
  0.00000000E+00  0.00000000E+00  0.00000000E+00
  0.00000000E+00  0.00000000E+00  0.00000000E+00
  0.00000000E+00  0.00000000E+00  0.00000000E+00
  0.00000000E+00  0.00000000E+00  0.00000000E+00
  0.00000000E+00  0.00000000E+00  0.00000000E+00
  0.00000000E+00  0.00000000E+00  0.00000000E+00
  0.00000000E+00  0.00000000E+00  0.00000000E+00
  0.00000000E+00  0.00000000E+00  0.00000000E+00
  0.00000000E+00  0.00000000E+00  0.00000000E+00
  0.00000000E+00  0.00000000E+00  0.00000000E+00
  0.00000000E+00  0.00000000E+00  0.00000000E+00
  0.00000000E+00  0.00000000E+00  0.00000000E+00
  0.00000000E+00  0.00000000E+00  0.00000000E+00
  0.00000000E+00  0.00000000E+00  0.00000000E+00
  0.00000000E+00  0.00000000E+00  0.00000000E+00
  0.00000000E+00  0.00000000E+00  0.00000000E+00
  0.00000000E+00  0.00000000E+00  0.00000000E+00
  0.00000000E+00  0.00000000E+00  0.00000000E+00
  0.00000000E+00  0.00000000E+00  0.00000000E+00
  0.00000000E+00  0.00000000E+00  0.00000000E+00
  0.00000000E+00  0.00000000E+00  0.00000000E+00
  0.00000000E+00  0.00000000E+00  0.00000000E+00
  0.00000000E+00  0.00000000E+00  0.00000000E+00
  0.00000000E+00  0.00000000E+00  0.00000000E+00
  0.00000000E+00  0.00000000E+00  0.00000000E+00
  0.00000000E+00  0.00000000E+00  0.00000000E+00
  0.00000000E+00  0.00000000E+00  0.00000000E+00
  0.00000000E+00  0.00000000E+00  0.00000000E+00
  0.00000000E+00  0.00000000E+00  0.00000000E+00
