Generated by VASPKIT code
 1.000000
   11.2209997176999998    0.0000000000000000    0.0000000000000000
   -5.6104998588999999    9.7176708113999997    0.0000000000000000
    0.0000000000000000    0.0000000000000000   39.1618995667000007
   Pt   O    H 
    80     1     1
Selective Dynamics
Direct
    0.1666650029999985    0.0833349970000015    0.0255399999999995    F  F  F    Pt005
    0.1666650029999985    0.3333350119999992    0.0255399999999995    F  F  F    Pt001
    0.1666650029999985    0.5833349819999967    0.0255399999999995    F  F  F    Pt006
    0.1666650029999985    0.8333350420000016    0.0255399999999995    F  F  F    Pt002
    0.4166649880000008    0.0833349970000015    0.0255399999999995    F  F  F    Pt009
    0.4166649880000008    0.3333350119999992    0.0255399999999995    F  F  F    Pt013
    0.4166649880000008    0.5833349819999967    0.0255399999999995    F  F  F    Pt010
    0.4166649880000008    0.8333350420000016    0.0255399999999995    F  F  F    Pt014
    0.6666650180000033    0.0833349970000015    0.0255399999999995    F  F  F    Pt007
    0.6666650180000033    0.3333350119999992    0.0255399999999995    F  F  F    Pt003
    0.6666650180000033    0.5833349819999967    0.0255399999999995    F  F  F    Pt008
    0.6666650180000033    0.8333350420000016    0.0255399999999995    F  F  F    Pt004
    0.9166649579999984    0.0833349970000015    0.0255399999999995    F  F  F    Pt011
    0.9166649579999984    0.3333350119999992    0.0255399999999995    F  F  F    Pt015
    0.9166649579999984    0.5833349819999967    0.0255399999999995    F  F  F    Pt012
    0.9166649579999984    0.8333350420000016    0.0255399999999995    F  F  F    Pt016
    0.0000000000000000    0.0000000000000000    0.0840200040000028    F  F  F    Pt017
    0.0000000000000000    0.2500000000000000    0.0840200040000028    F  F  F    Pt021
    0.0000000000000000    0.5000000000000000    0.0840200040000028    F  F  F    Pt018
    0.0000000000000000    0.7500000000000000    0.0840200040000028    F  F  F    Pt022
    0.2500000000000000    0.0000000000000000    0.0840200040000028    F  F  F    Pt029
    0.2500000000000000    0.2500000000000000    0.0840200040000028    F  F  F    Pt025
    0.2500000000000000    0.5000000000000000    0.0840200040000028    F  F  F    Pt030
    0.2500000000000000    0.7500000000000000    0.0840200040000028    F  F  F    Pt026
    0.5000000000000000    0.0000000000000000    0.0840200040000028    F  F  F    Pt019
    0.5000000000000000    0.2500000000000000    0.0840200040000028    F  F  F    Pt023
    0.5000000000000000    0.5000000000000000    0.0840200040000028    F  F  F    Pt020
    0.5000000000000000    0.7500000000000000    0.0840200040000028    F  F  F    Pt024
    0.7500000000000000    0.0000000000000000    0.0840200040000028    F  F  F    Pt031
    0.7500000000000000    0.2500000000000000    0.0840200040000028    F  F  F    Pt027
    0.7500000000000000    0.5000000000000000    0.0840200040000028    F  F  F    Pt032
    0.7500000000000000    0.7500000000000000    0.0840200040000028    F  F  F    Pt028
    0.0830973850146839    0.1660160338248072    0.1423315378627613    T  T  T    Pt047
    0.0835258749174990    0.4165605530574255    0.1417161909689161    T  T  T    Pt034
    0.0835623655167419    0.6671539927364450    0.1417497220929763    T  T  T    Pt040
    0.0828555253670977    0.9172568395286443    0.1424540937352242    T  T  T    Pt048
    0.3314858314601992    0.1657146849469707    0.1417650915420028    T  T  T    Pt043
    0.3331798123694970    0.4165236269005809    0.1417488018625860    T  T  T    Pt039
    0.3334187917867303    0.6666890581206032    0.1417961414071743    T  T  T    Pt045
    0.3329522385652348    0.9165468435685430    0.1417530097029554    T  T  T    Pt041
    0.5829783670169980    0.1666698451956434    0.1417291074945634    T  T  T    Pt037
    0.5832392537375579    0.4168463555985494    0.1417818687093735    T  T  T    Pt044
    0.5835786105593289    0.6669236684079934    0.1417476737382964    T  T  T    Pt038
    0.5835449381746616    0.9165839625394613    0.1417170828641236    T  T  T    Pt035
    0.8338616285978647    0.1662573339079248    0.1415248444814649    T  T  T    Pt033
    0.8334214224767581    0.4171127110105702    0.1417262414383893    T  T  T    Pt036
    0.8343785162401548    0.6685869257903252    0.1417549031948567    T  T  T    Pt042
    0.8340804256223919    0.9170069739605408    0.1423245447502430    T  T  T    Pt046
    0.1647984771152360    0.0824893522840962    0.2012370170325720    T  T  T    Pt064
    0.1671510597303199    0.3335615007786389    0.1996419777877028    T  T  T    Pt060
    0.1668420531761374    0.5831689156513792    0.1994874104729482    T  T  T    Pt056
    0.1670256815136063    0.8332496243317850    0.1996738389288233    T  T  T    Pt061
    0.4167504637751018    0.0834863765692465    0.1992870729615237    T  T  T    Pt052
    0.4166854522634419    0.3326740263325461    0.1993135987484856    T  T  T    Pt054
    0.4171381289351044    0.5831329069436610    0.1995202282251114    T  T  T    Pt058
    0.4171082863332359    0.8334397595906968    0.1994895440440713    T  T  T    Pt057
    0.6674030444841345    0.0835768491516992    0.1991730377360654    T  T  T    Pt050
    0.6670252813820110    0.3332442912663133    0.1994162846268763    T  T  T    Pt055
    0.6675875300188004    0.5835729223095980    0.1993089201369305    T  T  T    Pt053
    0.6667054124043804    0.8331191517944384    0.1996388306134585    T  T  T    Pt059
    0.9172993747502458    0.0829572234960829    0.2005675412162055    T  T  T    Pt062
    0.9166968318118177    0.3328702885825081    0.1991716070309829    T  T  T    Pt049
    0.9167828868461679    0.5835094320745645    0.1992805212174767    T  T  T    Pt051
    0.9177507878487657    0.8354260268919337    0.2012054608667880    T  T  T    Pt063
    0.0015622803619809    0.9991383231469015    0.2616973956204792    T  T  T    Pt080
    0.0008972396215604    0.2521070288102640    0.2583355940819896    T  T  T    Pt066
    0.0009566497875016    0.4990708022943532    0.2584825120086470    T  T  T    Pt071
    0.0010153585802053    0.7459739017302599    0.2583778653334511    T  T  T    Pt067
    0.2545540908653394    0.9994969144417893    0.2583931568509469    T  T  T    Pt068
    0.2541733344565438    0.2527215896844943    0.2584868992146401    T  T  T    Pt074
    0.2513127198269326    0.5003040765076489    0.2587483141137520    T  T  T    Pt079
    0.2514458537350551    0.7490695126986903    0.2587228060316953    T  T  T    Pt077
    0.5014432895742083    0.9995608938975806    0.2584863869710600    T  T  T    Pt072
    0.5017552858779120    0.2499476738664387    0.2584879386723843    T  T  T    Pt075
    0.5008836834799059    0.4996233890325535    0.2585523887260027    T  T  T    Pt076
    0.5002114752672900    0.7492004240810898    0.2587439521187531    T  T  T    Pt078
    0.7484298969330393    0.9996176294082133    0.2583294709732138    T  T  T    Pt065
    0.7507816173526707    0.2497377390175354    0.2584719372684216    T  T  T    Pt069
    0.7505747159940307    0.4987765901868492    0.2584867812553514    T  T  T    Pt073
    0.7478317994863333    0.7463700262535520    0.2584725419143063    T  T  T    Pt070
    0.0025128522032524    0.9972082794796465    0.3122984954901984    T  T  T     O001
    0.9569271154030679    0.0478111510595286    0.3198252347106434    T  T  T     H001
