CONTCAR\(5)\(1\1\1)                     
   1.00000000000000     
    11.2209997176999998    0.0000000000000000    0.0000000000000000
    -5.6104998588999999    9.7176708113999997    0.0000000000000000
     0.0000000000000000    0.0000000000000000   39.1618995667000007
   Pt
    80
Selective dynamics
Direct
  0.1666650029999985  0.0833349970000015  0.0255399999999995   F   F   F
  0.1666650029999985  0.3333349819999967  0.0255399999999995   F   F   F
  0.1666650029999985  0.5833349819999967  0.0255399999999995   F   F   F
  0.1666650029999985  0.8333349819999967  0.0255399999999995   F   F   F
  0.4166650180000033  0.0833349970000015  0.0255399999999995   F   F   F
  0.4166650180000033  0.3333349819999967  0.0255399999999995   F   F   F
  0.4166650180000033  0.5833349819999967  0.0255399999999995   F   F   F
  0.4166650180000033  0.8333349819999967  0.0255399999999995   F   F   F
  0.6666650180000033  0.0833349970000015  0.0255399999999995   F   F   F
  0.6666650180000033  0.3333349819999967  0.0255399999999995   F   F   F
  0.6666650180000033  0.5833349819999967  0.0255399999999995   F   F   F
  0.6666650180000033  0.8333349819999967  0.0255399999999995   F   F   F
  0.9166650180000033  0.0833349970000015  0.0255399999999995   F   F   F
  0.9166650180000033  0.3333349819999967  0.0255399999999995   F   F   F
  0.9166650180000033  0.5833349819999967  0.0255399999999995   F   F   F
  0.9166650180000033  0.8333349819999967  0.0255399999999995   F   F   F
  0.0000000000000000  0.0000000000000000  0.0840200040000028   F   F   F
  0.0000000000000000  0.2500000000000000  0.0840200040000028   F   F   F
  0.0000000000000000  0.5000000000000000  0.0840200040000028   F   F   F
  0.0000000000000000  0.7500000000000000  0.0840200040000028   F   F   F
  0.2500000000000000  0.0000000000000000  0.0840200040000028   F   F   F
  0.2500000000000000  0.2500000000000000  0.0840200040000028   F   F   F
  0.2500000000000000  0.5000000000000000  0.0840200040000028   F   F   F
  0.2500000000000000  0.7500000000000000  0.0840200040000028   F   F   F
  0.5000000000000000  0.0000000000000000  0.0840200040000028   F   F   F
  0.5000000000000000  0.2500000000000000  0.0840200040000028   F   F   F
  0.5000000000000000  0.5000000000000000  0.0840200040000028   F   F   F
  0.5000000000000000  0.7500000000000000  0.0840200040000028   F   F   F
  0.7500000000000000  0.0000000000000000  0.0840200040000028   F   F   F
  0.7500000000000000  0.2500000000000000  0.0840200040000028   F   F   F
  0.7500000000000000  0.5000000000000000  0.0840200040000028   F   F   F
  0.7500000000000000  0.7500000000000000  0.0840200040000028   F   F   F
  0.0833329040000024  0.1666670890000006  0.1418752921919269   T   T   T
  0.0833329040000024  0.4166671039999983  0.1418752921919269   T   T   T
  0.0833329040000024  0.6666671039999983  0.1418752921919269   T   T   T
  0.0833329040000024  0.9166671039999983  0.1418752921919269   T   T   T
  0.3333328960000017  0.1666670890000006  0.1418752921919269   T   T   T
  0.3333328960000017  0.4166671039999983  0.1418752921919269   T   T   T
  0.3333328960000017  0.6666671039999983  0.1418752921919269   T   T   T
  0.3333328960000017  0.9166671039999983  0.1418752921919269   T   T   T
  0.5833328960000017  0.1666670890000006  0.1418752921919269   T   T   T
  0.5833328960000017  0.4166671039999983  0.1418752921919269   T   T   T
  0.5833328960000017  0.6666671039999983  0.1418752921919269   T   T   T
  0.5833328960000017  0.9166671039999983  0.1418752921919269   T   T   T
  0.8333328960000017  0.1666670890000006  0.1418752921919269   T   T   T
  0.8333328960000017  0.4166671039999983  0.1418752921919269   T   T   T
  0.8333328960000017  0.6666671039999983  0.1418752921919269   T   T   T
  0.8333328960000017  0.9166671039999983  0.1418752921919269   T   T   T
  0.1666672830000024  0.0833327100000005  0.1997171672710753   T   T   T
  0.1666672830000024  0.3333327169999976  0.1997171672710753   T   T   T
  0.1666672830000024  0.5833327169999976  0.1997171672710753   T   T   T
  0.1666672830000024  0.8333327169999976  0.1997171672710753   T   T   T
  0.4166672830000024  0.0833327100000005  0.1997171672710753   T   T   T
  0.4166672830000024  0.3333327169999976  0.1997171672710753   T   T   T
  0.4166672830000024  0.5833327169999976  0.1997171672710753   T   T   T
  0.4166672830000024  0.8333327169999976  0.1997171672710753   T   T   T
  0.6666672830000024  0.0833327100000005  0.1997171672710753   T   T   T
  0.6666672830000024  0.3333327169999976  0.1997171672710753   T   T   T
  0.6666672830000024  0.5833327169999976  0.1997171672710753   T   T   T
  0.6666672830000024  0.8333327169999976  0.1997171672710753   T   T   T
  0.9166672830000024  0.0833327100000005  0.1997171672710753   T   T   T
  0.9166672830000024  0.3333327169999976  0.1997171672710753   T   T   T
  0.9166672830000024  0.5833327169999976  0.1997171672710753   T   T   T
  0.9166672830000024  0.8333327169999976  0.1997171672710753   T   T   T
  0.9999992850000012  0.0000007359999969  0.2587374436675833   T   T   T
  0.0000000000000000  0.2500007450000012  0.2587374436675833   T   T   T
  0.0000000000000000  0.5000007149999988  0.2587374436675833   T   T   T
  0.0000000000000000  0.7500007149999988  0.2587374436675833   T   T   T
  0.2499992850000012 -0.0000000000000000  0.2587374436675833   T   T   T
  0.2499992850000012  0.2500007450000012  0.2587374436675833   T   T   T
  0.2499992850000012  0.5000007149999988  0.2587374436675833   T   T   T
  0.2499992850000012  0.7500007149999988  0.2587374436675833   T   T   T
  0.4999992850000012 -0.0000000000000000  0.2587374436675833   T   T   T
  0.4999992850000012  0.2500007450000012  0.2587374436675833   T   T   T
  0.4999992850000012  0.5000007149999988  0.2587374436675833   T   T   T
  0.4999992850000012  0.7500007149999988  0.2587374436675833   T   T   T
  0.7499992850000012 -0.0000000000000000  0.2587374436675833   T   T   T
  0.7499992850000012  0.2500007450000012  0.2587374436675833   T   T   T
  0.7499992850000012  0.5000007149999988  0.2587374436675833   T   T   T
  0.7499992850000012  0.7500007149999988  0.2587374436675833   T   T   T
 
  0.00000000E+00  0.00000000E+00  0.00000000E+00
  0.00000000E+00  0.00000000E+00  0.00000000E+00
  0.00000000E+00  0.00000000E+00  0.00000000E+00
  0.00000000E+00  0.00000000E+00  0.00000000E+00
  0.00000000E+00  0.00000000E+00  0.00000000E+00
  0.00000000E+00  0.00000000E+00  0.00000000E+00
  0.00000000E+00  0.00000000E+00  0.00000000E+00
  0.00000000E+00  0.00000000E+00  0.00000000E+00
  0.00000000E+00  0.00000000E+00  0.00000000E+00
  0.00000000E+00  0.00000000E+00  0.00000000E+00
  0.00000000E+00  0.00000000E+00  0.00000000E+00
  0.00000000E+00  0.00000000E+00  0.00000000E+00
  0.00000000E+00  0.00000000E+00  0.00000000E+00
  0.00000000E+00  0.00000000E+00  0.00000000E+00
  0.00000000E+00  0.00000000E+00  0.00000000E+00
  0.00000000E+00  0.00000000E+00  0.00000000E+00
  0.00000000E+00  0.00000000E+00  0.00000000E+00
  0.00000000E+00  0.00000000E+00  0.00000000E+00
  0.00000000E+00  0.00000000E+00  0.00000000E+00
  0.00000000E+00  0.00000000E+00  0.00000000E+00
  0.00000000E+00  0.00000000E+00  0.00000000E+00
  0.00000000E+00  0.00000000E+00  0.00000000E+00
  0.00000000E+00  0.00000000E+00  0.00000000E+00
  0.00000000E+00  0.00000000E+00  0.00000000E+00
  0.00000000E+00  0.00000000E+00  0.00000000E+00
  0.00000000E+00  0.00000000E+00  0.00000000E+00
  0.00000000E+00  0.00000000E+00  0.00000000E+00
  0.00000000E+00  0.00000000E+00  0.00000000E+00
  0.00000000E+00  0.00000000E+00  0.00000000E+00
  0.00000000E+00  0.00000000E+00  0.00000000E+00
  0.00000000E+00  0.00000000E+00  0.00000000E+00
  0.00000000E+00  0.00000000E+00  0.00000000E+00
  0.00000000E+00  0.00000000E+00  0.00000000E+00
  0.00000000E+00  0.00000000E+00  0.00000000E+00
  0.00000000E+00  0.00000000E+00  0.00000000E+00
  0.00000000E+00  0.00000000E+00  0.00000000E+00
  0.00000000E+00  0.00000000E+00  0.00000000E+00
  0.00000000E+00  0.00000000E+00  0.00000000E+00
  0.00000000E+00  0.00000000E+00  0.00000000E+00
  0.00000000E+00  0.00000000E+00  0.00000000E+00
  0.00000000E+00  0.00000000E+00  0.00000000E+00
  0.00000000E+00  0.00000000E+00  0.00000000E+00
  0.00000000E+00  0.00000000E+00  0.00000000E+00
  0.00000000E+00  0.00000000E+00  0.00000000E+00
  0.00000000E+00  0.00000000E+00  0.00000000E+00
  0.00000000E+00  0.00000000E+00  0.00000000E+00
  0.00000000E+00  0.00000000E+00  0.00000000E+00
  0.00000000E+00  0.00000000E+00  0.00000000E+00
  0.00000000E+00  0.00000000E+00  0.00000000E+00
  0.00000000E+00  0.00000000E+00  0.00000000E+00
  0.00000000E+00  0.00000000E+00  0.00000000E+00
  0.00000000E+00  0.00000000E+00  0.00000000E+00
  0.00000000E+00  0.00000000E+00  0.00000000E+00
  0.00000000E+00  0.00000000E+00  0.00000000E+00
  0.00000000E+00  0.00000000E+00  0.00000000E+00
  0.00000000E+00  0.00000000E+00  0.00000000E+00
  0.00000000E+00  0.00000000E+00  0.00000000E+00
  0.00000000E+00  0.00000000E+00  0.00000000E+00
  0.00000000E+00  0.00000000E+00  0.00000000E+00
  0.00000000E+00  0.00000000E+00  0.00000000E+00
  0.00000000E+00  0.00000000E+00  0.00000000E+00
  0.00000000E+00  0.00000000E+00  0.00000000E+00
  0.00000000E+00  0.00000000E+00  0.00000000E+00
  0.00000000E+00  0.00000000E+00  0.00000000E+00
  0.00000000E+00  0.00000000E+00  0.00000000E+00
  0.00000000E+00  0.00000000E+00  0.00000000E+00
  0.00000000E+00  0.00000000E+00  0.00000000E+00
  0.00000000E+00  0.00000000E+00  0.00000000E+00
  0.00000000E+00  0.00000000E+00  0.00000000E+00
  0.00000000E+00  0.00000000E+00  0.00000000E+00
  0.00000000E+00  0.00000000E+00  0.00000000E+00
  0.00000000E+00  0.00000000E+00  0.00000000E+00
  0.00000000E+00  0.00000000E+00  0.00000000E+00
  0.00000000E+00  0.00000000E+00  0.00000000E+00
  0.00000000E+00  0.00000000E+00  0.00000000E+00
  0.00000000E+00  0.00000000E+00  0.00000000E+00
  0.00000000E+00  0.00000000E+00  0.00000000E+00
  0.00000000E+00  0.00000000E+00  0.00000000E+00
  0.00000000E+00  0.00000000E+00  0.00000000E+00
  0.00000000E+00  0.00000000E+00  0.00000000E+00
