CONTCAR\(6)                             
   1.00000000000000     
     4.8587999344000004    0.0000000000000000    0.0000000000000000
     2.4293999672000002    4.2078441751000000    0.0000000000000000
     0.0000000000000000    0.0000000000000000   39.1618995667000007
   Pt   O    H 
    15     2     4
Selective dynamics
Direct
  0.3333300050000005  0.0000100000000032  0.0255399999999995   F   F   F
  0.9999899860000028  0.6666700239999983  0.0255399999999995   F   F   F
  0.6666600109999976  0.3333399890000024  0.0255399999999995   F   F   F
  0.0000000000000000  0.0000000000000000  0.0840200040000028   F   F   F
  0.6666700239999983  0.6666700239999983  0.0840200040000028   F   F   F
  0.3333300050000005  0.3333300050000005  0.0840200040000028   F   F   F
  0.9993440745116019  0.3325100186529247  0.1417463651666163   T   T   T
  0.6655683147938476  0.9994178962330513  0.1417521628038430   T   T   T
  0.3324192925931813  0.6656617473266588  0.1417549194831122   T   T   T
  0.3308459651516477  0.9975891419369618  0.1995639416022419   T   T   T
  0.9970602245938250  0.6648031146123762  0.1995630601556838   T   T   T
  0.6643370538498330  0.3313737974599696  0.1995551279915680   T   T   T
  0.9951574315102356  0.9962375852730578  0.2585486826397745   T   T   T
  0.6617641481218813  0.6629189933190588  0.2586969531230345   T   T   T
  0.3286111985198577  0.3296210549489451  0.2583986721582561   T   T   T
  0.6525979624180046  0.6606777904359019  0.3593598671686737   T   T   T
  0.3314896405896257  0.3401449295737151  0.3450188883006801   T   T   T
  0.4487094251650052  0.4573735982330014  0.3498323413486116   T   T   T
  0.8822245452618079  0.5637444993330707  0.3545205605694236   T   T   T
  0.5558723843882887  0.8902756759156256  0.3545310411781848   T   T   T
  0.3247564848799580  0.3331559693226437  0.3199101231299966   T   T   T
 
  0.00000000E+00  0.00000000E+00  0.00000000E+00
  0.00000000E+00  0.00000000E+00  0.00000000E+00
  0.00000000E+00  0.00000000E+00  0.00000000E+00
  0.00000000E+00  0.00000000E+00  0.00000000E+00
  0.00000000E+00  0.00000000E+00  0.00000000E+00
  0.00000000E+00  0.00000000E+00  0.00000000E+00
  0.00000000E+00  0.00000000E+00  0.00000000E+00
  0.00000000E+00  0.00000000E+00  0.00000000E+00
  0.00000000E+00  0.00000000E+00  0.00000000E+00
  0.00000000E+00  0.00000000E+00  0.00000000E+00
  0.00000000E+00  0.00000000E+00  0.00000000E+00
  0.00000000E+00  0.00000000E+00  0.00000000E+00
  0.00000000E+00  0.00000000E+00  0.00000000E+00
  0.00000000E+00  0.00000000E+00  0.00000000E+00
  0.00000000E+00  0.00000000E+00  0.00000000E+00
  0.00000000E+00  0.00000000E+00  0.00000000E+00
  0.00000000E+00  0.00000000E+00  0.00000000E+00
  0.00000000E+00  0.00000000E+00  0.00000000E+00
  0.00000000E+00  0.00000000E+00  0.00000000E+00
  0.00000000E+00  0.00000000E+00  0.00000000E+00
  0.00000000E+00  0.00000000E+00  0.00000000E+00
