CONTCAR\(6)                             
   1.00000000000000     
     4.8587999344000004    0.0000000000000000    0.0000000000000000
     2.4293999672000002    4.2078441751000000    0.0000000000000000
     0.0000000000000000    0.0000000000000000   39.1618995667000007
   Pt   O    H 
    15     2     4
Selective dynamics
Direct
  0.3333300050000005  0.0000100000000032  0.0255399999999995   F   F   F
  0.9999899860000028  0.6666700239999983  0.0255399999999995   F   F   F
  0.6666600109999976  0.3333399890000024  0.0255399999999995   F   F   F
  0.0000000000000000  0.0000000000000000  0.0840200040000028   F   F   F
  0.6666700239999983  0.6666700239999983  0.0840200040000028   F   F   F
  0.3333300050000005  0.3333300050000005  0.0840200040000028   F   F   F
  0.9993862731135439  0.3325542667458714  0.1417659376478189   T   T   T
  0.6656473155821894  0.9994319322628794  0.1417764771284920   T   T   T
  0.3324939271568229  0.6657131418578470  0.1417819994351529   T   T   T
  0.3308412132430466  0.9976358947585643  0.1995851378621789   T   T   T
  0.9971054764419426  0.6647766495963952  0.1995840376168296   T   T   T
  0.6643347456624314  0.3313577123585724  0.1995776126826610   T   T   T
  0.9950131014450846  0.9961041270091430  0.2586042188987314   T   T   T
  0.6616192330914222  0.6627734261419019  0.2587286886294942   T   T   T
  0.3284411630647632  0.3294763589784859  0.2584772250056028   T   T   T
  0.6534275193671908  0.6614840169684586  0.3597379917711988   T   T   T
  0.3313234610271455  0.3400100966080610  0.3449766952446979   T   T   T
  0.4485602834845576  0.4573084286307948  0.3496349156629425   T   T   T
  0.8820581690269013  0.5638916959967697  0.3542854903222815   T   T   T
  0.5560704242518948  0.8901483746087542  0.3542980719721275   T   T   T
  0.3242978851039168  0.3326349697607522  0.3197935585678624   T   T   T
 
  0.00000000E+00  0.00000000E+00  0.00000000E+00
  0.00000000E+00  0.00000000E+00  0.00000000E+00
  0.00000000E+00  0.00000000E+00  0.00000000E+00
  0.00000000E+00  0.00000000E+00  0.00000000E+00
  0.00000000E+00  0.00000000E+00  0.00000000E+00
  0.00000000E+00  0.00000000E+00  0.00000000E+00
  0.00000000E+00  0.00000000E+00  0.00000000E+00
  0.00000000E+00  0.00000000E+00  0.00000000E+00
  0.00000000E+00  0.00000000E+00  0.00000000E+00
  0.00000000E+00  0.00000000E+00  0.00000000E+00
  0.00000000E+00  0.00000000E+00  0.00000000E+00
  0.00000000E+00  0.00000000E+00  0.00000000E+00
  0.00000000E+00  0.00000000E+00  0.00000000E+00
  0.00000000E+00  0.00000000E+00  0.00000000E+00
  0.00000000E+00  0.00000000E+00  0.00000000E+00
  0.00000000E+00  0.00000000E+00  0.00000000E+00
  0.00000000E+00  0.00000000E+00  0.00000000E+00
  0.00000000E+00  0.00000000E+00  0.00000000E+00
  0.00000000E+00  0.00000000E+00  0.00000000E+00
  0.00000000E+00  0.00000000E+00  0.00000000E+00
  0.00000000E+00  0.00000000E+00  0.00000000E+00
