CONTCAR\(6)                             
   1.00000000000000     
     4.8587999344000004    0.0000000000000000    0.0000000000000000
     2.4293999672000002    4.2078441751000000    0.0000000000000000
     0.0000000000000000    0.0000000000000000   39.1618995667000007
   Pt   O    H 
    15     2     4
Selective dynamics
Direct
  0.3333300050000005  0.0000100000000032  0.0255399999999995   F   F   F
  0.9999899860000028  0.6666700239999983  0.0255399999999995   F   F   F
  0.6666600109999976  0.3333399890000024  0.0255399999999995   F   F   F
  0.0000000000000000  0.0000000000000000  0.0840200040000028   F   F   F
  0.6666700239999983  0.6666700239999983  0.0840200040000028   F   F   F
  0.3333300050000005  0.3333300050000005  0.0840200040000028   F   F   F
  0.9991518352462245  0.3339330873349008  0.1419010599163392   T   T   T
  0.6656833051493293  0.0011213681585035  0.1419013761883352   T   T   T
  0.3322126600056330  0.6675044648788823  0.1418782948633548   T   T   T
  0.3330730676715680  0.9989568864146777  0.1996392075649835   T   T   T
  0.9947498191089682  0.6689646117191618  0.1996179428620307   T   T   T
  0.6642826857174495  0.3376993814270384  0.1996907884800353   T   T   T
  0.9947932108813291  0.0030412318505196  0.2577891423594836   T   T   T
  0.6610171587451387  0.6700165935747507  0.2603842234229747   T   T   T
  0.3279106638215322  0.3363464725681365  0.2574015360795811   T   T   T
  0.6574672921175593  0.6693832654486740  0.3205753767503347   T   T   T
  0.3165873553483249  0.3312418934053692  0.3412550583270501   T   T   T
  0.4281161926649430  0.4424694671504974  0.3332290845821267   T   T   T
  0.8846410639609708  0.5652905201753514  0.3277983690862553   T   T   T
  0.5527051774427196  0.8968830002141469  0.3276794573872394   T   T   T
  0.3240083307356952  0.3381315522732525  0.3661876119958327   T   T   T
 
  0.00000000E+00  0.00000000E+00  0.00000000E+00
  0.00000000E+00  0.00000000E+00  0.00000000E+00
  0.00000000E+00  0.00000000E+00  0.00000000E+00
  0.00000000E+00  0.00000000E+00  0.00000000E+00
  0.00000000E+00  0.00000000E+00  0.00000000E+00
  0.00000000E+00  0.00000000E+00  0.00000000E+00
  0.00000000E+00  0.00000000E+00  0.00000000E+00
  0.00000000E+00  0.00000000E+00  0.00000000E+00
  0.00000000E+00  0.00000000E+00  0.00000000E+00
  0.00000000E+00  0.00000000E+00  0.00000000E+00
  0.00000000E+00  0.00000000E+00  0.00000000E+00
  0.00000000E+00  0.00000000E+00  0.00000000E+00
  0.00000000E+00  0.00000000E+00  0.00000000E+00
  0.00000000E+00  0.00000000E+00  0.00000000E+00
  0.00000000E+00  0.00000000E+00  0.00000000E+00
  0.00000000E+00  0.00000000E+00  0.00000000E+00
  0.00000000E+00  0.00000000E+00  0.00000000E+00
  0.00000000E+00  0.00000000E+00  0.00000000E+00
  0.00000000E+00  0.00000000E+00  0.00000000E+00
  0.00000000E+00  0.00000000E+00  0.00000000E+00
  0.00000000E+00  0.00000000E+00  0.00000000E+00
