Generated by VASPKIT code               
   1.00000000000000     
    14.5765924453999993    0.0000000000000000    0.0000000000000000
     7.2882962226999997   12.6236993582999997    0.0000000000000000
     0.0000000000000000    0.0000000000000000   39.1618995667000007
   Pt   O    H 
   135    18    30
Selective dynamics
Direct
  0.1111100019999967  0.0000000000000000  0.0255399999999995   F   F   F
  0.7777766589999970  0.6666666870000029  0.0255399999999995   F   F   F
  0.4444433450000034  0.3333333429999996  0.0255399999999995   F   F   F
  0.9999966620000009  0.2222266639999972  0.0255399999999995   F   F   F
  0.6666633489999967  0.8888933059999999  0.0255399999999995   F   F   F
  0.3333300050000005  0.5555599930000028  0.0255399999999995   F   F   F
  0.8888866899999996  0.4444466530000000  0.0255399999999995   F   F   F
  0.5555533770000025  0.1111133169999974  0.0255399999999995   F   F   F
  0.2222200189999981  0.7777799959999996  0.0255399999999995   F   F   F
  0.3333299760000017  0.8888900279999987  0.0255399999999995   F   F   F
  0.9999966620000009  0.5555567150000016  0.0255399999999995   F   F   F
  0.6666632889999988  0.2222233560000006  0.0255399999999995   F   F   F
  0.2222166509999965  0.1111166700000012  0.0255399999999995   F   F   F
  0.8888832929999992  0.7777833339999987  0.0255399999999995   F   F   F
  0.5555499789999985  0.4444499909999990  0.0255399999999995   F   F   F
  0.1111066559999969  0.3333366809999987  0.0255399999999995   F   F   F
  0.7777733209999980  0.0000033479999999  0.0255399999999995   F   F   F
  0.4444399770000018  0.6666700239999983  0.0255399999999995   F   F   F
  0.5555566549999966  0.7777766589999970  0.0255399999999995   F   F   F
  0.2222233270000018  0.4444433150000009  0.0255399999999995   F   F   F
  0.8888899680000009  0.1111099940000031  0.0255399999999995   F   F   F
  0.4444433450000034  0.0000033179999974  0.0255399999999995   F   F   F
  0.1111100090000008  0.6666699649999970  0.0255399999999995   F   F   F
  0.7777766589999970  0.3333366510000033  0.0255399999999995   F   F   F
  0.3333333429999996  0.2222233270000018  0.0255399999999995   F   F   F
  0.0000000000000000  0.8888899680000009  0.0255399999999995   F   F   F
  0.6666666870000029  0.5555566549999966  0.0255399999999995   F   F   F
  0.0000000000000000  0.0000000000000000  0.0840200040000028   F   F   F
  0.6666666870000029  0.6666666870000029  0.0840200040000028   F   F   F
  0.3333333429999996  0.3333333429999996  0.0840200040000028   F   F   F
  0.8888900279999987  0.2222200040000004  0.0840200040000028   F   F   F
  0.5555567150000016  0.8888866899999996  0.0840200040000028   F   F   F
  0.2222233560000006  0.5555533169999975  0.0840200040000028   F   F   F
  0.7777766589999970  0.4444466830000025  0.0840200040000028   F   F   F
  0.4444433150000009  0.1111133469999999  0.0840200040000028   F   F   F
  0.1111099940000031  0.7777799959999996  0.0840200040000028   F   F   F
  0.2222200040000004  0.8888900279999987  0.0840200040000028   F   F   F
  0.8888866899999996  0.5555567150000016  0.0840200040000028   F   F   F
  0.5555533169999975  0.2222233560000006  0.0840200040000028   F   F   F
  0.1111100019999967  0.1111100019999967  0.0840200040000028   F   F   F
  0.7777766589999970  0.7777766589999970  0.0840200040000028   F   F   F
  0.4444433450000034  0.4444433450000034  0.0840200040000028   F   F   F
  0.9999966620000009  0.3333366809999987  0.0840200040000028   F   F   F
  0.6666633489999967  0.0000033479999999  0.0840200040000028   F   F   F
  0.3333300050000005  0.6666700239999983  0.0840200040000028   F   F   F
  0.4444466830000025  0.7777766589999970  0.0840200040000028   F   F   F
  0.1111133469999999  0.4444433150000009  0.0840200040000028   F   F   F
  0.7777799959999996  0.1111099940000031  0.0840200040000028   F   F   F
  0.3333366809999987  0.9999966620000009  0.0840200040000028   F   F   F
  0.0000033479999999  0.6666633489999967  0.0840200040000028   F   F   F
  0.6666700239999983  0.3333300050000005  0.0840200040000028   F   F   F
  0.2222233410000030  0.2222233410000030  0.0840200040000028   F   F   F
  0.8888900279999987  0.8888900279999987  0.0840200040000028   F   F   F
  0.5555566549999966  0.5555566549999966  0.0840200040000028   F   F   F
  0.0001581387406354  0.1107397096108709  0.1417153035898986   T   T   T
  0.6668260605598636  0.7773997469295293  0.1417171591377791   T   T   T
  0.3334886594723395  0.4440645746161353  0.1417157635553761   T   T   T
  0.8890538554188051  0.3337166834977932  0.1419004505774081   T   T   T
  0.5557126649862004  0.0003955321739530  0.1419025682697008   T   T   T
  0.2223766102612721  0.6670590851390511  0.1419016505342439   T   T   T
  0.7775924564726989  0.5556651617619681  0.1422556795955964   T   T   T
  0.4442456901309326  0.2223467634252445  0.1422552128924930   T   T   T
  0.1109082937341075  0.8890184781451732  0.1422540655849219   T   T   T
  0.2224268622005152  0.0000839692106620  0.1426054256791157   T   T   T
  0.8891138070143721  0.6667390725664133  0.1426048391518248   T   T   T
  0.5557749152514613  0.3334076180391006  0.1426051895608363   T   T   T
  0.1117297668430081  0.2219398429321192  0.1423673200729495   T   T   T
  0.7784023679907824  0.8886109348702425  0.1423679851740308   T   T   T
  0.4450647443897460  0.5552733504156683  0.1423686258878421   T   T   T
 -0.0000720956302804  0.4443866104266420  0.1425694463651762   T   T   T
  0.6665952119887393  0.1110627579275834  0.1425698221791601   T   T   T
  0.3332500533755776  0.7777334070211399  0.1425707230994958   T   T   T
  0.4431947556022653  0.8896657425373680  0.1418712902640461   T   T   T
  0.1098736618362644  0.5563170984175227  0.1418707930323015   T   T   T
  0.7765498747453446  0.2229823582193891  0.1418707177006586   T   T   T
  0.3324028916920621  0.1120799779192304  0.1422667638348688   T   T   T
  0.9990785763376643  0.7787440441908265  0.1422676278004246   T   T   T
  0.6657525127654395  0.4453952178660951  0.1422668874239498   T   T   T
  0.2213965158951890  0.3329984304337201  0.1421206786566774   T   T   T
  0.8880735893041595  0.9996720848407006  0.1421208761228926   T   T   T
  0.5547372032291269  0.6663322467578431  0.1421210594048956   T   T   T
  0.1118742719347195  0.0006048265704014  0.2002656445892389   T   T   T
  0.7785496924108791  0.6672640988013210  0.2002657562162494   T   T   T
  0.4452107983108768  0.3339333802756990  0.2002654583595696   T   T   T
 -0.0001029727166889  0.2214944920370144  0.1994503262207882   T   T   T
  0.6665630277189856  0.8881648116336606  0.1994523056910107   T   T   T
  0.3332264604805582  0.5548294901769836  0.1994516080198265   T   T   T
  0.8867315095080716  0.4462318811894294  0.2006368917882735   T   T   T
  0.5533912362751831  0.1129049436666519  0.2006374919984250   T   T   T
  0.2200554603714504  0.7795735745909165  0.2006367973403990   T   T   T
  0.3325343711489575  0.8875375895521849  0.2011215346449674   T   T   T
  0.9992102592975742  0.5541965499353009  0.2011214286705104   T   T   T
  0.6658745752065290  0.2208645681661774  0.2011213311903990   T   T   T
  0.2203186320472079  0.1130025527734263  0.2013133596548084   T   T   T
  0.8869941986675475  0.7796656254270925  0.2013133153858594   T   T   T
  0.5536609431636019  0.4463270549635128  0.2013131423962728   T   T   T
  0.1114886395685329  0.3333588476099116  0.2011700460116927   T   T   T
  0.7781557740645170  0.0000264261349998  0.2011707843062769   T   T   T
  0.4448194590889967  0.6666916460348195  0.2011707199387574   T   T   T
  0.5530280163588190  0.7791019492683842  0.1989019806634932   T   T   T
  0.2196905189506754  0.4457699218927300  0.1989000958843203   T   T   T
  0.8863571849163133  0.1124374124112670  0.1988999287672007   T   T   T
  0.4436439015015498  0.0012843116384316  0.1993649277323427   T   T   T
  0.1103152808420611  0.6679473966310698  0.1993641868992932   T   T   T
  0.7769888512004772  0.3346083637427199  0.1993638181058929   T   T   T
  0.3324855446173135  0.2217776914020714  0.2005109398089821   T   T   T
  0.9991547937916444  0.8884443769011754  0.2005109310495347   T   T   T
  0.6658269213451378  0.5551045492854549  0.2005106417894633   T   T   T
  0.9963465743524061  0.0039397151633983  0.2566922357144127   T   T   T
  0.6630199443297765  0.6705968930568843  0.2566994079381310   T   T   T
  0.3296813782288658  0.3372693844609319  0.2566948064262657   T   T   T
  0.8868505428477022  0.2227377343493751  0.2575909725840104   T   T   T
  0.5535133808579242  0.8894077650257284  0.2575963653001051   T   T   T
  0.2201791248767772  0.5560716288433102  0.2575931611038533   T   T   T
  0.7771560679059125  0.4422135427660052  0.2597468634847873   T   T   T
  0.4438160452782031  0.1088867017056220  0.2597465949994377   T   T   T
  0.1104844528311191  0.7755529878055907  0.2597456053996743   T   T   T
  0.2188221486862386  0.8901550905413773  0.2607483167683949   T   T   T
  0.8854976415015301  0.5568115224761625  0.2607488890313704   T   T   T
  0.5521621062699242  0.2234818777812369  0.2607488314842300   T   T   T
  0.1076168084888005  0.1136925488998056  0.2603499234771159   T   T   T
  0.7742898243244644  0.7803557936881306  0.2603499847424042   T   T   T
  0.4409554184229610  0.4470211742414936  0.2603498754653876   T   T   T
  0.9973573425980082  0.3331001756483489  0.2579181404367764   T   T   T
  0.6640239883684441  0.9997730511539799  0.2579225199583589   T   T   T
  0.3306854904081293  0.6664384519056514  0.2579235020902559   T   T   T
  0.4414092332173941  0.7807685835712971  0.2604945242684483   T   T   T
  0.1080811677412750  0.4474283456948622  0.2604943343316661   T   T   T
  0.7747483610832762  0.1141015602032536  0.2604948248645866   T   T   T
  0.3328980262328449 -0.0000793410689788  0.2580207851222296   T   T   T
  0.9995727263587367  0.6665794074405587  0.2580202639688223   T   T   T
  0.6662410526707772  0.3332468898954615  0.2580202591944260   T   T   T
  0.2206363991924799  0.2236038806160118  0.2608173935046562   T   T   T
  0.8873074176431972  0.8902716913872176  0.2608176335684400   T   T   T
  0.5539734635920538  0.5569335234763376  0.2608174812937793   T   T   T
  0.2051963297888536  0.8956385838222898  0.3147557566608846   T   T   T
  0.8718618311811157  0.5623097919229276  0.3147564776783552   T   T   T
  0.5385279376425668  0.2289743507031732  0.3147564195940869   T   T   T
  0.4402896834745976  0.1160533735399148  0.3170330615758888   T   T   T
  0.1069571807952479  0.7827192430673992  0.3170324816951778   T   T   T
  0.7736232340887592  0.4493870410657729  0.3170321742231330   T   T   T
  0.1162927345008279  0.4345757167735989  0.3183370453024085   T   T   T
  0.7829590596423125  0.1012420679721993  0.3183379568395199   T   T   T
  0.4496238621070084  0.7679098523963461  0.3183387740661927   T   T   T
  0.5564177151667562  0.8843996538401844  0.3413056296294943   T   T   T
  0.2230848742840676  0.5510663529078249  0.3413057969771101   T   T   T
  0.8897509743734332  0.2177322292937922  0.3413067062113471   T   T   T
  0.2296826247527554  0.2286866613943661  0.3148723753856469   T   T   T
  0.8963497635353650  0.8953522739453831  0.3148724147802381   T   T   T
  0.5630152672191701  0.5620214770389325  0.3148736108761342   T   T   T
  0.1130905709550130  0.1022368276396005  0.3184527889909251   T   T   T
  0.7797571314727104  0.7689053030943914  0.3184552210161536   T   T   T
  0.4464223288920117  0.4355730749685293  0.3184546901799188   T   T   T
  0.2795163257860754  0.8567340390768728  0.3222422183587621   T   T   T
  0.9461819230118965  0.5234018692999305  0.3222422708124627   T   T   T
  0.6128485857501970  0.1900682805507724  0.3222427415860467   T   T   T
  0.5214496732099756  0.9540260672401597  0.3296556835426639   T   T   T
  0.1881166568329392  0.6206933040303982  0.3296559299340796   T   T   T
  0.8547837183223707  0.2873585202150392  0.3296563680654681   T   T   T
  0.1939995863245879  0.1900451603329169  0.3223850318279418   T   T   T
  0.8606662934311355  0.8567101854874187  0.3223854653663192   T   T   T
  0.5273314361659343  0.5233790948209002  0.3223851292933638   T   T   T
  0.1625510909855522  0.3531239649306041  0.3202778928566627   T   T   T
  0.8292187522341804  0.0197892109726282  0.3202781854367800   T   T   T
  0.4958861527030011  0.6864555220974585  0.3202778102601889   T   T   T
  0.4914398838332616  0.8008860763411463  0.3257774205081851   T   T   T
  0.1581064768384550  0.4675524644317115  0.3257778633365860   T   T   T
  0.8247725704166683  0.1342187191436248  0.3257779954830575   T   T   T
  0.0383138785069526  0.1350950623583527  0.3259043600763102   T   T   T
  0.7049790737585676  0.8017630283251579  0.3259037973333319   T   T   T
  0.3716460650391556  0.4684295368404995  0.3259036127743535   T   T   T
  0.1480898329679131  0.0209347621113606  0.3203340604169811   T   T   T
  0.8147555996919954  0.6876009816787146  0.3203335932103618   T   T   T
  0.4814213616206396  0.3542687327875204  0.3203336259599222   T   T   T
  0.8082324781432665  0.4949159416262878  0.3199286412253614   T   T   T
  0.4748995534897280  0.1615820153781068  0.3199286199678408   T   T   T
  0.1415675515920112  0.8282474540625789  0.3199283315042367   T   T   T
  0.3601124057794032  0.1615643921059562  0.3199676504100242   T   T   T
  0.0267804340579240  0.8282302041013720  0.3199675991999149   T   T   T
  0.6934457085231774  0.4948997837748101  0.3199679032222989   T   T   T
  0.5476416161473244  0.9014226014418107  0.3655893900582726   T   T   T
  0.2143081944316363  0.5680894295746876  0.3655894542352593   T   T   T
  0.8809750919556686  0.2347570529075043  0.3655901313120888   T   T   T
 
  0.00000000E+00  0.00000000E+00  0.00000000E+00
  0.00000000E+00  0.00000000E+00  0.00000000E+00
  0.00000000E+00  0.00000000E+00  0.00000000E+00
  0.00000000E+00  0.00000000E+00  0.00000000E+00
  0.00000000E+00  0.00000000E+00  0.00000000E+00
  0.00000000E+00  0.00000000E+00  0.00000000E+00
  0.00000000E+00  0.00000000E+00  0.00000000E+00
  0.00000000E+00  0.00000000E+00  0.00000000E+00
  0.00000000E+00  0.00000000E+00  0.00000000E+00
  0.00000000E+00  0.00000000E+00  0.00000000E+00
  0.00000000E+00  0.00000000E+00  0.00000000E+00
  0.00000000E+00  0.00000000E+00  0.00000000E+00
  0.00000000E+00  0.00000000E+00  0.00000000E+00
  0.00000000E+00  0.00000000E+00  0.00000000E+00
  0.00000000E+00  0.00000000E+00  0.00000000E+00
  0.00000000E+00  0.00000000E+00  0.00000000E+00
  0.00000000E+00  0.00000000E+00  0.00000000E+00
  0.00000000E+00  0.00000000E+00  0.00000000E+00
  0.00000000E+00  0.00000000E+00  0.00000000E+00
  0.00000000E+00  0.00000000E+00  0.00000000E+00
  0.00000000E+00  0.00000000E+00  0.00000000E+00
  0.00000000E+00  0.00000000E+00  0.00000000E+00
  0.00000000E+00  0.00000000E+00  0.00000000E+00
  0.00000000E+00  0.00000000E+00  0.00000000E+00
  0.00000000E+00  0.00000000E+00  0.00000000E+00
  0.00000000E+00  0.00000000E+00  0.00000000E+00
  0.00000000E+00  0.00000000E+00  0.00000000E+00
  0.00000000E+00  0.00000000E+00  0.00000000E+00
  0.00000000E+00  0.00000000E+00  0.00000000E+00
  0.00000000E+00  0.00000000E+00  0.00000000E+00
  0.00000000E+00  0.00000000E+00  0.00000000E+00
  0.00000000E+00  0.00000000E+00  0.00000000E+00
  0.00000000E+00  0.00000000E+00  0.00000000E+00
  0.00000000E+00  0.00000000E+00  0.00000000E+00
  0.00000000E+00  0.00000000E+00  0.00000000E+00
  0.00000000E+00  0.00000000E+00  0.00000000E+00
  0.00000000E+00  0.00000000E+00  0.00000000E+00
  0.00000000E+00  0.00000000E+00  0.00000000E+00
  0.00000000E+00  0.00000000E+00  0.00000000E+00
  0.00000000E+00  0.00000000E+00  0.00000000E+00
  0.00000000E+00  0.00000000E+00  0.00000000E+00
  0.00000000E+00  0.00000000E+00  0.00000000E+00
  0.00000000E+00  0.00000000E+00  0.00000000E+00
  0.00000000E+00  0.00000000E+00  0.00000000E+00
  0.00000000E+00  0.00000000E+00  0.00000000E+00
  0.00000000E+00  0.00000000E+00  0.00000000E+00
  0.00000000E+00  0.00000000E+00  0.00000000E+00
  0.00000000E+00  0.00000000E+00  0.00000000E+00
  0.00000000E+00  0.00000000E+00  0.00000000E+00
  0.00000000E+00  0.00000000E+00  0.00000000E+00
  0.00000000E+00  0.00000000E+00  0.00000000E+00
  0.00000000E+00  0.00000000E+00  0.00000000E+00
  0.00000000E+00  0.00000000E+00  0.00000000E+00
  0.00000000E+00  0.00000000E+00  0.00000000E+00
  0.00000000E+00  0.00000000E+00  0.00000000E+00
  0.00000000E+00  0.00000000E+00  0.00000000E+00
  0.00000000E+00  0.00000000E+00  0.00000000E+00
  0.00000000E+00  0.00000000E+00  0.00000000E+00
  0.00000000E+00  0.00000000E+00  0.00000000E+00
  0.00000000E+00  0.00000000E+00  0.00000000E+00
  0.00000000E+00  0.00000000E+00  0.00000000E+00
  0.00000000E+00  0.00000000E+00  0.00000000E+00
  0.00000000E+00  0.00000000E+00  0.00000000E+00
  0.00000000E+00  0.00000000E+00  0.00000000E+00
  0.00000000E+00  0.00000000E+00  0.00000000E+00
  0.00000000E+00  0.00000000E+00  0.00000000E+00
  0.00000000E+00  0.00000000E+00  0.00000000E+00
  0.00000000E+00  0.00000000E+00  0.00000000E+00
  0.00000000E+00  0.00000000E+00  0.00000000E+00
  0.00000000E+00  0.00000000E+00  0.00000000E+00
  0.00000000E+00  0.00000000E+00  0.00000000E+00
  0.00000000E+00  0.00000000E+00  0.00000000E+00
  0.00000000E+00  0.00000000E+00  0.00000000E+00
  0.00000000E+00  0.00000000E+00  0.00000000E+00
  0.00000000E+00  0.00000000E+00  0.00000000E+00
  0.00000000E+00  0.00000000E+00  0.00000000E+00
  0.00000000E+00  0.00000000E+00  0.00000000E+00
  0.00000000E+00  0.00000000E+00  0.00000000E+00
  0.00000000E+00  0.00000000E+00  0.00000000E+00
  0.00000000E+00  0.00000000E+00  0.00000000E+00
  0.00000000E+00  0.00000000E+00  0.00000000E+00
  0.00000000E+00  0.00000000E+00  0.00000000E+00
  0.00000000E+00  0.00000000E+00  0.00000000E+00
  0.00000000E+00  0.00000000E+00  0.00000000E+00
  0.00000000E+00  0.00000000E+00  0.00000000E+00
  0.00000000E+00  0.00000000E+00  0.00000000E+00
  0.00000000E+00  0.00000000E+00  0.00000000E+00
  0.00000000E+00  0.00000000E+00  0.00000000E+00
  0.00000000E+00  0.00000000E+00  0.00000000E+00
  0.00000000E+00  0.00000000E+00  0.00000000E+00
  0.00000000E+00  0.00000000E+00  0.00000000E+00
  0.00000000E+00  0.00000000E+00  0.00000000E+00
  0.00000000E+00  0.00000000E+00  0.00000000E+00
  0.00000000E+00  0.00000000E+00  0.00000000E+00
  0.00000000E+00  0.00000000E+00  0.00000000E+00
  0.00000000E+00  0.00000000E+00  0.00000000E+00
  0.00000000E+00  0.00000000E+00  0.00000000E+00
  0.00000000E+00  0.00000000E+00  0.00000000E+00
  0.00000000E+00  0.00000000E+00  0.00000000E+00
  0.00000000E+00  0.00000000E+00  0.00000000E+00
  0.00000000E+00  0.00000000E+00  0.00000000E+00
  0.00000000E+00  0.00000000E+00  0.00000000E+00
  0.00000000E+00  0.00000000E+00  0.00000000E+00
  0.00000000E+00  0.00000000E+00  0.00000000E+00
  0.00000000E+00  0.00000000E+00  0.00000000E+00
  0.00000000E+00  0.00000000E+00  0.00000000E+00
  0.00000000E+00  0.00000000E+00  0.00000000E+00
  0.00000000E+00  0.00000000E+00  0.00000000E+00
  0.00000000E+00  0.00000000E+00  0.00000000E+00
  0.00000000E+00  0.00000000E+00  0.00000000E+00
  0.00000000E+00  0.00000000E+00  0.00000000E+00
  0.00000000E+00  0.00000000E+00  0.00000000E+00
  0.00000000E+00  0.00000000E+00  0.00000000E+00
  0.00000000E+00  0.00000000E+00  0.00000000E+00
  0.00000000E+00  0.00000000E+00  0.00000000E+00
  0.00000000E+00  0.00000000E+00  0.00000000E+00
  0.00000000E+00  0.00000000E+00  0.00000000E+00
  0.00000000E+00  0.00000000E+00  0.00000000E+00
  0.00000000E+00  0.00000000E+00  0.00000000E+00
  0.00000000E+00  0.00000000E+00  0.00000000E+00
  0.00000000E+00  0.00000000E+00  0.00000000E+00
  0.00000000E+00  0.00000000E+00  0.00000000E+00
  0.00000000E+00  0.00000000E+00  0.00000000E+00
  0.00000000E+00  0.00000000E+00  0.00000000E+00
  0.00000000E+00  0.00000000E+00  0.00000000E+00
  0.00000000E+00  0.00000000E+00  0.00000000E+00
  0.00000000E+00  0.00000000E+00  0.00000000E+00
  0.00000000E+00  0.00000000E+00  0.00000000E+00
  0.00000000E+00  0.00000000E+00  0.00000000E+00
  0.00000000E+00  0.00000000E+00  0.00000000E+00
  0.00000000E+00  0.00000000E+00  0.00000000E+00
  0.00000000E+00  0.00000000E+00  0.00000000E+00
  0.00000000E+00  0.00000000E+00  0.00000000E+00
  0.00000000E+00  0.00000000E+00  0.00000000E+00
  0.00000000E+00  0.00000000E+00  0.00000000E+00
  0.00000000E+00  0.00000000E+00  0.00000000E+00
  0.00000000E+00  0.00000000E+00  0.00000000E+00
  0.00000000E+00  0.00000000E+00  0.00000000E+00
  0.00000000E+00  0.00000000E+00  0.00000000E+00
  0.00000000E+00  0.00000000E+00  0.00000000E+00
  0.00000000E+00  0.00000000E+00  0.00000000E+00
  0.00000000E+00  0.00000000E+00  0.00000000E+00
  0.00000000E+00  0.00000000E+00  0.00000000E+00
  0.00000000E+00  0.00000000E+00  0.00000000E+00
  0.00000000E+00  0.00000000E+00  0.00000000E+00
  0.00000000E+00  0.00000000E+00  0.00000000E+00
  0.00000000E+00  0.00000000E+00  0.00000000E+00
  0.00000000E+00  0.00000000E+00  0.00000000E+00
  0.00000000E+00  0.00000000E+00  0.00000000E+00
  0.00000000E+00  0.00000000E+00  0.00000000E+00
  0.00000000E+00  0.00000000E+00  0.00000000E+00
  0.00000000E+00  0.00000000E+00  0.00000000E+00
  0.00000000E+00  0.00000000E+00  0.00000000E+00
  0.00000000E+00  0.00000000E+00  0.00000000E+00
  0.00000000E+00  0.00000000E+00  0.00000000E+00
  0.00000000E+00  0.00000000E+00  0.00000000E+00
  0.00000000E+00  0.00000000E+00  0.00000000E+00
  0.00000000E+00  0.00000000E+00  0.00000000E+00
  0.00000000E+00  0.00000000E+00  0.00000000E+00
  0.00000000E+00  0.00000000E+00  0.00000000E+00
  0.00000000E+00  0.00000000E+00  0.00000000E+00
  0.00000000E+00  0.00000000E+00  0.00000000E+00
  0.00000000E+00  0.00000000E+00  0.00000000E+00
  0.00000000E+00  0.00000000E+00  0.00000000E+00
  0.00000000E+00  0.00000000E+00  0.00000000E+00
  0.00000000E+00  0.00000000E+00  0.00000000E+00
  0.00000000E+00  0.00000000E+00  0.00000000E+00
  0.00000000E+00  0.00000000E+00  0.00000000E+00
  0.00000000E+00  0.00000000E+00  0.00000000E+00
  0.00000000E+00  0.00000000E+00  0.00000000E+00
  0.00000000E+00  0.00000000E+00  0.00000000E+00
  0.00000000E+00  0.00000000E+00  0.00000000E+00
  0.00000000E+00  0.00000000E+00  0.00000000E+00
  0.00000000E+00  0.00000000E+00  0.00000000E+00
  0.00000000E+00  0.00000000E+00  0.00000000E+00
  0.00000000E+00  0.00000000E+00  0.00000000E+00
  0.00000000E+00  0.00000000E+00  0.00000000E+00
  0.00000000E+00  0.00000000E+00  0.00000000E+00
  0.00000000E+00  0.00000000E+00  0.00000000E+00
  0.00000000E+00  0.00000000E+00  0.00000000E+00
  0.00000000E+00  0.00000000E+00  0.00000000E+00
  0.00000000E+00  0.00000000E+00  0.00000000E+00
  0.00000000E+00  0.00000000E+00  0.00000000E+00
