Generated by VASPKIT code               
   1.00000000000000     
    14.5765924453999993    0.0000000000000000    0.0000000000000000
     7.2882962226999997   12.6236993582999997    0.0000000000000000
     0.0000000000000000    0.0000000000000000   39.1618995667000007
   Pt   O    H 
   135    18    18
Selective dynamics
Direct
  0.1111100019999967  0.0000000000000000  0.0255399999999995   F   F   F
  0.7777766589999970  0.6666666870000029  0.0255399999999995   F   F   F
  0.4444433450000034  0.3333333429999996  0.0255399999999995   F   F   F
  0.9999966620000009  0.2222266639999972  0.0255399999999995   F   F   F
  0.6666633489999967  0.8888933059999999  0.0255399999999995   F   F   F
  0.3333300050000005  0.5555599930000028  0.0255399999999995   F   F   F
  0.8888866899999996  0.4444466530000000  0.0255399999999995   F   F   F
  0.5555533770000025  0.1111133169999974  0.0255399999999995   F   F   F
  0.2222200189999981  0.7777799959999996  0.0255399999999995   F   F   F
  0.3333299760000017  0.8888900279999987  0.0255399999999995   F   F   F
  0.9999966620000009  0.5555567150000016  0.0255399999999995   F   F   F
  0.6666632889999988  0.2222233560000006  0.0255399999999995   F   F   F
  0.2222166509999965  0.1111166700000012  0.0255399999999995   F   F   F
  0.8888832929999992  0.7777833339999987  0.0255399999999995   F   F   F
  0.5555499789999985  0.4444499909999990  0.0255399999999995   F   F   F
  0.1111066559999969  0.3333366809999987  0.0255399999999995   F   F   F
  0.7777733209999980  0.0000033479999999  0.0255399999999995   F   F   F
  0.4444399770000018  0.6666700239999983  0.0255399999999995   F   F   F
  0.5555566549999966  0.7777766589999970  0.0255399999999995   F   F   F
  0.2222233270000018  0.4444433150000009  0.0255399999999995   F   F   F
  0.8888899680000009  0.1111099940000031  0.0255399999999995   F   F   F
  0.4444433450000034  0.0000033179999974  0.0255399999999995   F   F   F
  0.1111100090000008  0.6666699649999970  0.0255399999999995   F   F   F
  0.7777766589999970  0.3333366510000033  0.0255399999999995   F   F   F
  0.3333333429999996  0.2222233270000018  0.0255399999999995   F   F   F
  0.0000000000000000  0.8888899680000009  0.0255399999999995   F   F   F
  0.6666666870000029  0.5555566549999966  0.0255399999999995   F   F   F
  0.0000000000000000  0.0000000000000000  0.0840200040000028   F   F   F
  0.6666666870000029  0.6666666870000029  0.0840200040000028   F   F   F
  0.3333333429999996  0.3333333429999996  0.0840200040000028   F   F   F
  0.8888900279999987  0.2222200040000004  0.0840200040000028   F   F   F
  0.5555567150000016  0.8888866899999996  0.0840200040000028   F   F   F
  0.2222233560000006  0.5555533169999975  0.0840200040000028   F   F   F
  0.7777766589999970  0.4444466830000025  0.0840200040000028   F   F   F
  0.4444433150000009  0.1111133469999999  0.0840200040000028   F   F   F
  0.1111099940000031  0.7777799959999996  0.0840200040000028   F   F   F
  0.2222200040000004  0.8888900279999987  0.0840200040000028   F   F   F
  0.8888866899999996  0.5555567150000016  0.0840200040000028   F   F   F
  0.5555533169999975  0.2222233560000006  0.0840200040000028   F   F   F
  0.1111100019999967  0.1111100019999967  0.0840200040000028   F   F   F
  0.7777766589999970  0.7777766589999970  0.0840200040000028   F   F   F
  0.4444433450000034  0.4444433450000034  0.0840200040000028   F   F   F
  0.9999966620000009  0.3333366809999987  0.0840200040000028   F   F   F
  0.6666633489999967  0.0000033479999999  0.0840200040000028   F   F   F
  0.3333300050000005  0.6666700239999983  0.0840200040000028   F   F   F
  0.4444466830000025  0.7777766589999970  0.0840200040000028   F   F   F
  0.1111133469999999  0.4444433150000009  0.0840200040000028   F   F   F
  0.7777799959999996  0.1111099940000031  0.0840200040000028   F   F   F
  0.3333366809999987  0.9999966620000009  0.0840200040000028   F   F   F
  0.0000033479999999  0.6666633489999967  0.0840200040000028   F   F   F
  0.6666700239999983  0.3333300050000005  0.0840200040000028   F   F   F
  0.2222233410000030  0.2222233410000030  0.0840200040000028   F   F   F
  0.8888900279999987  0.8888900279999987  0.0840200040000028   F   F   F
  0.5555566549999966  0.5555566549999966  0.0840200040000028   F   F   F
  0.9998556524093957  0.1108250818443315  0.1424920030599142   T   T   T
  0.6665223394093985  0.7774917238443272  0.1424920030599142   T   T   T
  0.3331889964093992  0.4441584108443299  0.1424920030599142   T   T   T
  0.8886626367358984  0.3337148035220673  0.1422247306487506   T   T   T
  0.5553293237359013  0.0003814705220687  0.1422247306487506   T   T   T
  0.2219959657359039  0.6670481465220672  0.1422247306487506   T   T   T
  0.7777142572965771  0.5560213533011873  0.1424956370417263   T   T   T
  0.4443809142965776  0.2226880253011928  0.1424956370417263   T   T   T
  0.1110475932965798  0.8893546673011881  0.1424956370417263   T   T   T
  0.2219431419231817  0.9998105267630534  0.1421661957108994   T   T   T
  0.8886097839231774  0.6664772127630526  0.1421661957108994   T   T   T
  0.5552764709231802  0.3331438697630529  0.1421661957108994   T   T   T
  0.1112146220999109  0.2217836897099905  0.1422313765608493   T   T   T
  0.7778812710999107  0.8884503307099894  0.1422313765608493   T   T   T
  0.4445479580999063  0.5551170177099922  0.1422313765608493   T   T   T
  0.0005903385290828  0.4443285340372168  0.1422287055337995   T   T   T
  0.6672569845290788  0.1109951980372215  0.1422287055337995   T   T   T
  0.3339236715290816  0.7776618480372177  0.1422287055337995   T   T   T
  0.4451754188066621  0.8883866807142440  0.1421596144844560   T   T   T
  0.1118420828066595  0.5550533677142397  0.1421596144844560   T   T   T
  0.7785087318066592  0.2217200097142423  0.1421596144844560   T   T   T
  0.3333432145547388  0.1116209809995061  0.1421656343521017   T   T   T
  0.0000098815547401  0.7782876449995034  0.1421656343521017   T   T   T
  0.6666765575547455  0.4449543019995040  0.1421656343521017   T   T   T
  0.2229206475888450  0.3329637300888705  0.1424942231622961   T   T   T
  0.8895872895888478  0.9996303870888709  0.1424942231622961   T   T   T
  0.5562539755888470  0.6662970740888737  0.1424942231622961   T   T   T
  0.1134141233289257  0.0001000531243600  0.2012230883179449   T   T   T
  0.7800807953289239  0.6667667391243592  0.2012230883179449   T   T   T
  0.4467474513289276  0.3334333961243595  0.2012230883179449   T   T   T
  0.9999616431091393  0.2205154429636701  0.2003607171884461   T   T   T
  0.6666283291091385  0.8871820989636668  0.2003607171884461   T   T   T
  0.3332949861091387  0.5538487859636697  0.2003607171884461   T   T   T
  0.8875823636483826  0.4462736025392983  0.2003671784363279   T   T   T
  0.5542490506483784  0.1129402665392956  0.2003671784363279   T   T   T
  0.2209156916483775  0.7796069155392952  0.2003671784363279   T   T   T
  0.3338035035899705  0.8875777179364441  0.2003148404844082   T   T   T
  0.0004701695899752  0.5542444039364434  0.2003148404844082   T   T   T
  0.6671368165899749  0.2209110459364461  0.2003148404844082   T   T   T
  0.2212894116895368  0.1120493984064210  0.2003289361353741   T   T   T
  0.8879560676895407  0.7787160854064239  0.2003289361353741   T   T   T
  0.5546227546895436  0.4453827414064278  0.2003289361353741   T   T   T
  0.1133521251842120  0.3329062245661106  0.2003628735636137   T   T   T
  0.7800187751842083  0.9995728815661108  0.2003628735636137   T   T   T
  0.4466854611842075  0.6662395675661100  0.2003628735636137   T   T   T
  0.5536621071066299  0.7796588460598618  0.2012222003521877   T   T   T
  0.2203287781066315  0.4463255020598655  0.2012222003521877   T   T   T
  0.8869954201066270  0.1129921810598605  0.2012222003521877   T   T   T
  0.4457774381757630  0.0000606197570500  0.2003073494380891   T   T   T
  0.1124441021757676  0.6667273067570529  0.2003073494380891   T   T   T
  0.7791107811757625  0.3333939627570497  0.2003073494380891   T   T   T
  0.3338434678577549  0.2198903512544496  0.2012256305294096   T   T   T
  0.0005101348577490  0.8865570372544488  0.2012256305294096   T   T   T
  0.6671767808577519  0.5532236642544538  0.2012256305294096   T   T   T
  0.0004212477513341  0.9998332577167665  0.2577953151132876   T   T   T
  0.6670879257513399  0.6664999437167657  0.2577953151132876   T   T   T
  0.3337545827513402  0.3331666007167661  0.2577953151132876   T   T   T
  0.8895793082756409  0.2221389879161093  0.2601174675544816   T   T   T
  0.5562459942756401  0.8888056289161080  0.2601174675544816   T   T   T
  0.2229126362756429  0.5554723159161038  0.2601174675544816   T   T   T
  0.7764654546500364  0.4458536448976022  0.2601513217414766   T   T   T
  0.4431321116500368  0.1125203088975996  0.2601513217414766   T   T   T
  0.1097987906500319  0.7791869588976028  0.2601513217414766   T   T   T
  0.2226987134995674  0.8884048449415993  0.2601400542565614   T   T   T
  0.8893653704995605  0.5550715319416022  0.2601400542565614   T   T   T
  0.5560320564995669  0.2217381739415976  0.2601400542565614   T   T   T
  0.1117024145533118  0.1092427274409065  0.2601632322521185   T   T   T
  0.7783690785533165  0.7759093914409039  0.2601632322521185   T   T   T
  0.4450357355533168  0.4425760484409045  0.2601632322521185   T   T   T
  0.0004075829401304  0.3331951285846451  0.2565663227057986   T   T   T
  0.6670742689401296  0.9998618145846442  0.2565663227057986   T   T   T
  0.3337409259401301  0.6665284415846421  0.2565663227057986   T   T   T
  0.4463826034065165  0.7778213441292976  0.2601440802519278   T   T   T
  0.1130492674065140  0.4444880011292983  0.2601440802519278   T   T   T
  0.7797159464065161  0.1111546801293005  0.2601440802519278   T   T   T
  0.3337385189522635  0.9998748765248672  0.2572349785124121   T   T   T
  0.0004051849522681  0.6665415635248700  0.2572349785124121   T   T   T
  0.6670718619522630  0.3332082205248705  0.2572349785124121   T   T   T
  0.2222279284954599  0.2223736850025795  0.2601425732889987   T   T   T
  0.8888946004954580  0.8890403570025847  0.2601425732889987   T   T   T
  0.5555612864954572  0.5557070430025839  0.2601425732889987   T   T   T
  0.8960064980601899  0.5420141126804459  0.3106147606380835   T   T   T
  0.5626731850601928  0.2086807846804509  0.3106147606380835   T   T   T
  0.2293398270601885  0.8753474266804466  0.3106147606380835   T   T   T
  0.7892162683449132  0.4379148301678764  0.3106967969681774   T   T   T
  0.4558829253449135  0.1045814941678808  0.3106967969681774   T   T   T
  0.1225496043449157  0.7712481731678759  0.3106967969681774   T   T   T
  0.4387188538439326  0.7730359412938982  0.3106944747277301   T   T   T
  0.1053855178439300  0.4397025972939019  0.3106944747277301   T   T   T
  0.7720521978439288  0.1063692762938969  0.3106944747277301   T   T   T
  0.8961988976100971  0.2286893741016767  0.3105928282453396   T   T   T
  0.5628655836100963  0.8953560451016784  0.3105928282453396   T   T   T
  0.2295322256100993  0.5620227321016742  0.3105928282453396   T   T   T
  0.2091847534933763  0.2289249632714317  0.3106235296622359   T   T   T
  0.8758514244933781  0.8955916352714369  0.3106235296622359   T   T   T
  0.5425181114933738  0.5622583222714327  0.3106235296622359   T   T   T
  0.1067407460364304  0.1218097233602461  0.3107027341442958   T   T   T
  0.7734073950364302  0.7884764023602486  0.3107027341442958   T   T   T
  0.4400740820364329  0.4551430593602486  0.3107027341442958   T   T   T
  0.9742393483986168  0.5047539752174265  0.3161152132374642   T   T   T
  0.6409060353986197  0.1714206472174248  0.3161152132374642   T   T   T
  0.3075726923986131  0.8380872892174273  0.3161152132374642   T   T   T
  0.8551971406084282  0.3069033806896477  0.3161247940232267   T   T   T
  0.5218638266084275  0.9735700666896470  0.3161247940232267   T   T   T
  0.1885304686084302  0.6402366936896520  0.3161247940232267   T   T   T
  0.1718912331336315  0.1880406361685493  0.3161702404060103   T   T   T
  0.8385579201336346  0.8547073231685521  0.3161702404060103   T   T   T
  0.5052245471336325  0.5213739501685500  0.3161702404060103   T   T   T
  0.1441086448941760  0.3616957132469914  0.3163321869583971   T   T   T
  0.8107753318941785  0.0283623792469960  0.3163321869583971   T   T   T
  0.4774419888941721  0.6950290262469955  0.3163321869583971   T   T   T
  0.0286775002069381  0.1612306282343325  0.3162930283077540   T   T   T
  0.6953441772069400  0.8278972702343352  0.3162930283077540   T   T   T
  0.3620108342069405  0.4945639562343346  0.3162930283077540   T   T   T
  0.8285947493191030  0.4765334703273051  0.3163420707985758   T   T   T
  0.4952614063191034  0.1432001423273033  0.3163420707985758   T   T   T
  0.1619280783191016  0.8098667843273060  0.3163420707985758   T   T   T
 
  0.00000000E+00  0.00000000E+00  0.00000000E+00
  0.00000000E+00  0.00000000E+00  0.00000000E+00
  0.00000000E+00  0.00000000E+00  0.00000000E+00
  0.00000000E+00  0.00000000E+00  0.00000000E+00
  0.00000000E+00  0.00000000E+00  0.00000000E+00
  0.00000000E+00  0.00000000E+00  0.00000000E+00
  0.00000000E+00  0.00000000E+00  0.00000000E+00
  0.00000000E+00  0.00000000E+00  0.00000000E+00
  0.00000000E+00  0.00000000E+00  0.00000000E+00
  0.00000000E+00  0.00000000E+00  0.00000000E+00
  0.00000000E+00  0.00000000E+00  0.00000000E+00
  0.00000000E+00  0.00000000E+00  0.00000000E+00
  0.00000000E+00  0.00000000E+00  0.00000000E+00
  0.00000000E+00  0.00000000E+00  0.00000000E+00
  0.00000000E+00  0.00000000E+00  0.00000000E+00
  0.00000000E+00  0.00000000E+00  0.00000000E+00
  0.00000000E+00  0.00000000E+00  0.00000000E+00
  0.00000000E+00  0.00000000E+00  0.00000000E+00
  0.00000000E+00  0.00000000E+00  0.00000000E+00
  0.00000000E+00  0.00000000E+00  0.00000000E+00
  0.00000000E+00  0.00000000E+00  0.00000000E+00
  0.00000000E+00  0.00000000E+00  0.00000000E+00
  0.00000000E+00  0.00000000E+00  0.00000000E+00
  0.00000000E+00  0.00000000E+00  0.00000000E+00
  0.00000000E+00  0.00000000E+00  0.00000000E+00
  0.00000000E+00  0.00000000E+00  0.00000000E+00
  0.00000000E+00  0.00000000E+00  0.00000000E+00
  0.00000000E+00  0.00000000E+00  0.00000000E+00
  0.00000000E+00  0.00000000E+00  0.00000000E+00
  0.00000000E+00  0.00000000E+00  0.00000000E+00
  0.00000000E+00  0.00000000E+00  0.00000000E+00
  0.00000000E+00  0.00000000E+00  0.00000000E+00
  0.00000000E+00  0.00000000E+00  0.00000000E+00
  0.00000000E+00  0.00000000E+00  0.00000000E+00
  0.00000000E+00  0.00000000E+00  0.00000000E+00
  0.00000000E+00  0.00000000E+00  0.00000000E+00
  0.00000000E+00  0.00000000E+00  0.00000000E+00
  0.00000000E+00  0.00000000E+00  0.00000000E+00
  0.00000000E+00  0.00000000E+00  0.00000000E+00
  0.00000000E+00  0.00000000E+00  0.00000000E+00
  0.00000000E+00  0.00000000E+00  0.00000000E+00
  0.00000000E+00  0.00000000E+00  0.00000000E+00
  0.00000000E+00  0.00000000E+00  0.00000000E+00
  0.00000000E+00  0.00000000E+00  0.00000000E+00
  0.00000000E+00  0.00000000E+00  0.00000000E+00
  0.00000000E+00  0.00000000E+00  0.00000000E+00
  0.00000000E+00  0.00000000E+00  0.00000000E+00
  0.00000000E+00  0.00000000E+00  0.00000000E+00
  0.00000000E+00  0.00000000E+00  0.00000000E+00
  0.00000000E+00  0.00000000E+00  0.00000000E+00
  0.00000000E+00  0.00000000E+00  0.00000000E+00
  0.00000000E+00  0.00000000E+00  0.00000000E+00
  0.00000000E+00  0.00000000E+00  0.00000000E+00
  0.00000000E+00  0.00000000E+00  0.00000000E+00
  0.00000000E+00  0.00000000E+00  0.00000000E+00
  0.00000000E+00  0.00000000E+00  0.00000000E+00
  0.00000000E+00  0.00000000E+00  0.00000000E+00
  0.00000000E+00  0.00000000E+00  0.00000000E+00
  0.00000000E+00  0.00000000E+00  0.00000000E+00
  0.00000000E+00  0.00000000E+00  0.00000000E+00
  0.00000000E+00  0.00000000E+00  0.00000000E+00
  0.00000000E+00  0.00000000E+00  0.00000000E+00
  0.00000000E+00  0.00000000E+00  0.00000000E+00
  0.00000000E+00  0.00000000E+00  0.00000000E+00
  0.00000000E+00  0.00000000E+00  0.00000000E+00
  0.00000000E+00  0.00000000E+00  0.00000000E+00
  0.00000000E+00  0.00000000E+00  0.00000000E+00
  0.00000000E+00  0.00000000E+00  0.00000000E+00
  0.00000000E+00  0.00000000E+00  0.00000000E+00
  0.00000000E+00  0.00000000E+00  0.00000000E+00
  0.00000000E+00  0.00000000E+00  0.00000000E+00
  0.00000000E+00  0.00000000E+00  0.00000000E+00
  0.00000000E+00  0.00000000E+00  0.00000000E+00
  0.00000000E+00  0.00000000E+00  0.00000000E+00
  0.00000000E+00  0.00000000E+00  0.00000000E+00
  0.00000000E+00  0.00000000E+00  0.00000000E+00
  0.00000000E+00  0.00000000E+00  0.00000000E+00
  0.00000000E+00  0.00000000E+00  0.00000000E+00
  0.00000000E+00  0.00000000E+00  0.00000000E+00
  0.00000000E+00  0.00000000E+00  0.00000000E+00
  0.00000000E+00  0.00000000E+00  0.00000000E+00
  0.00000000E+00  0.00000000E+00  0.00000000E+00
  0.00000000E+00  0.00000000E+00  0.00000000E+00
  0.00000000E+00  0.00000000E+00  0.00000000E+00
  0.00000000E+00  0.00000000E+00  0.00000000E+00
  0.00000000E+00  0.00000000E+00  0.00000000E+00
  0.00000000E+00  0.00000000E+00  0.00000000E+00
  0.00000000E+00  0.00000000E+00  0.00000000E+00
  0.00000000E+00  0.00000000E+00  0.00000000E+00
  0.00000000E+00  0.00000000E+00  0.00000000E+00
  0.00000000E+00  0.00000000E+00  0.00000000E+00
  0.00000000E+00  0.00000000E+00  0.00000000E+00
  0.00000000E+00  0.00000000E+00  0.00000000E+00
  0.00000000E+00  0.00000000E+00  0.00000000E+00
  0.00000000E+00  0.00000000E+00  0.00000000E+00
  0.00000000E+00  0.00000000E+00  0.00000000E+00
  0.00000000E+00  0.00000000E+00  0.00000000E+00
  0.00000000E+00  0.00000000E+00  0.00000000E+00
  0.00000000E+00  0.00000000E+00  0.00000000E+00
  0.00000000E+00  0.00000000E+00  0.00000000E+00
  0.00000000E+00  0.00000000E+00  0.00000000E+00
  0.00000000E+00  0.00000000E+00  0.00000000E+00
  0.00000000E+00  0.00000000E+00  0.00000000E+00
  0.00000000E+00  0.00000000E+00  0.00000000E+00
  0.00000000E+00  0.00000000E+00  0.00000000E+00
  0.00000000E+00  0.00000000E+00  0.00000000E+00
  0.00000000E+00  0.00000000E+00  0.00000000E+00
  0.00000000E+00  0.00000000E+00  0.00000000E+00
  0.00000000E+00  0.00000000E+00  0.00000000E+00
  0.00000000E+00  0.00000000E+00  0.00000000E+00
  0.00000000E+00  0.00000000E+00  0.00000000E+00
  0.00000000E+00  0.00000000E+00  0.00000000E+00
  0.00000000E+00  0.00000000E+00  0.00000000E+00
  0.00000000E+00  0.00000000E+00  0.00000000E+00
  0.00000000E+00  0.00000000E+00  0.00000000E+00
  0.00000000E+00  0.00000000E+00  0.00000000E+00
  0.00000000E+00  0.00000000E+00  0.00000000E+00
  0.00000000E+00  0.00000000E+00  0.00000000E+00
  0.00000000E+00  0.00000000E+00  0.00000000E+00
  0.00000000E+00  0.00000000E+00  0.00000000E+00
  0.00000000E+00  0.00000000E+00  0.00000000E+00
  0.00000000E+00  0.00000000E+00  0.00000000E+00
  0.00000000E+00  0.00000000E+00  0.00000000E+00
  0.00000000E+00  0.00000000E+00  0.00000000E+00
  0.00000000E+00  0.00000000E+00  0.00000000E+00
  0.00000000E+00  0.00000000E+00  0.00000000E+00
  0.00000000E+00  0.00000000E+00  0.00000000E+00
  0.00000000E+00  0.00000000E+00  0.00000000E+00
  0.00000000E+00  0.00000000E+00  0.00000000E+00
  0.00000000E+00  0.00000000E+00  0.00000000E+00
  0.00000000E+00  0.00000000E+00  0.00000000E+00
  0.00000000E+00  0.00000000E+00  0.00000000E+00
  0.00000000E+00  0.00000000E+00  0.00000000E+00
  0.00000000E+00  0.00000000E+00  0.00000000E+00
  0.00000000E+00  0.00000000E+00  0.00000000E+00
  0.00000000E+00  0.00000000E+00  0.00000000E+00
  0.00000000E+00  0.00000000E+00  0.00000000E+00
  0.00000000E+00  0.00000000E+00  0.00000000E+00
  0.00000000E+00  0.00000000E+00  0.00000000E+00
  0.00000000E+00  0.00000000E+00  0.00000000E+00
  0.00000000E+00  0.00000000E+00  0.00000000E+00
  0.00000000E+00  0.00000000E+00  0.00000000E+00
  0.00000000E+00  0.00000000E+00  0.00000000E+00
  0.00000000E+00  0.00000000E+00  0.00000000E+00
  0.00000000E+00  0.00000000E+00  0.00000000E+00
  0.00000000E+00  0.00000000E+00  0.00000000E+00
  0.00000000E+00  0.00000000E+00  0.00000000E+00
  0.00000000E+00  0.00000000E+00  0.00000000E+00
  0.00000000E+00  0.00000000E+00  0.00000000E+00
  0.00000000E+00  0.00000000E+00  0.00000000E+00
  0.00000000E+00  0.00000000E+00  0.00000000E+00
  0.00000000E+00  0.00000000E+00  0.00000000E+00
  0.00000000E+00  0.00000000E+00  0.00000000E+00
  0.00000000E+00  0.00000000E+00  0.00000000E+00
  0.00000000E+00  0.00000000E+00  0.00000000E+00
  0.00000000E+00  0.00000000E+00  0.00000000E+00
  0.00000000E+00  0.00000000E+00  0.00000000E+00
  0.00000000E+00  0.00000000E+00  0.00000000E+00
  0.00000000E+00  0.00000000E+00  0.00000000E+00
  0.00000000E+00  0.00000000E+00  0.00000000E+00
  0.00000000E+00  0.00000000E+00  0.00000000E+00
  0.00000000E+00  0.00000000E+00  0.00000000E+00
  0.00000000E+00  0.00000000E+00  0.00000000E+00
  0.00000000E+00  0.00000000E+00  0.00000000E+00
  0.00000000E+00  0.00000000E+00  0.00000000E+00
  0.00000000E+00  0.00000000E+00  0.00000000E+00
  0.00000000E+00  0.00000000E+00  0.00000000E+00
  0.00000000E+00  0.00000000E+00  0.00000000E+00
  0.00000000E+00  0.00000000E+00  0.00000000E+00
  0.00000000E+00  0.00000000E+00  0.00000000E+00
  0.00000000E+00  0.00000000E+00  0.00000000E+00
