Generated by VASPKIT code               
   1.00000000000000     
    14.5765924453999993    0.0000000000000000    0.0000000000000000
     7.2882962226999997   12.6236993582999997    0.0000000000000000
     0.0000000000000000    0.0000000000000000   39.1618995667000007
   Pt   O    H 
   135    18    27
Selective dynamics
Direct
  0.1111100019999967  0.0000000000000000  0.0255399999999995   F   F   F
  0.7777766589999970  0.6666666870000029  0.0255399999999995   F   F   F
  0.4444433450000034  0.3333333429999996  0.0255399999999995   F   F   F
  0.9999966620000009  0.2222266639999972  0.0255399999999995   F   F   F
  0.6666633489999967  0.8888933059999999  0.0255399999999995   F   F   F
  0.3333300050000005  0.5555599930000028  0.0255399999999995   F   F   F
  0.8888866899999996  0.4444466530000000  0.0255399999999995   F   F   F
  0.5555533770000025  0.1111133169999974  0.0255399999999995   F   F   F
  0.2222200189999981  0.7777799959999996  0.0255399999999995   F   F   F
  0.3333299760000017  0.8888900279999987  0.0255399999999995   F   F   F
  0.9999966620000009  0.5555567150000016  0.0255399999999995   F   F   F
  0.6666632889999988  0.2222233560000006  0.0255399999999995   F   F   F
  0.2222166509999965  0.1111166700000012  0.0255399999999995   F   F   F
  0.8888832929999992  0.7777833339999987  0.0255399999999995   F   F   F
  0.5555499789999985  0.4444499909999990  0.0255399999999995   F   F   F
  0.1111066559999969  0.3333366809999987  0.0255399999999995   F   F   F
  0.7777733209999980  0.0000033479999999  0.0255399999999995   F   F   F
  0.4444399770000018  0.6666700239999983  0.0255399999999995   F   F   F
  0.5555566549999966  0.7777766589999970  0.0255399999999995   F   F   F
  0.2222233270000018  0.4444433150000009  0.0255399999999995   F   F   F
  0.8888899680000009  0.1111099940000031  0.0255399999999995   F   F   F
  0.4444433450000034  0.0000033179999974  0.0255399999999995   F   F   F
  0.1111100090000008  0.6666699649999970  0.0255399999999995   F   F   F
  0.7777766589999970  0.3333366510000033  0.0255399999999995   F   F   F
  0.3333333429999996  0.2222233270000018  0.0255399999999995   F   F   F
  0.0000000000000000  0.8888899680000009  0.0255399999999995   F   F   F
  0.6666666870000029  0.5555566549999966  0.0255399999999995   F   F   F
  0.0000000000000000  0.0000000000000000  0.0840200040000028   F   F   F
  0.6666666870000029  0.6666666870000029  0.0840200040000028   F   F   F
  0.3333333429999996  0.3333333429999996  0.0840200040000028   F   F   F
  0.8888900279999987  0.2222200040000004  0.0840200040000028   F   F   F
  0.5555567150000016  0.8888866899999996  0.0840200040000028   F   F   F
  0.2222233560000006  0.5555533169999975  0.0840200040000028   F   F   F
  0.7777766589999970  0.4444466830000025  0.0840200040000028   F   F   F
  0.4444433150000009  0.1111133469999999  0.0840200040000028   F   F   F
  0.1111099940000031  0.7777799959999996  0.0840200040000028   F   F   F
  0.2222200040000004  0.8888900279999987  0.0840200040000028   F   F   F
  0.8888866899999996  0.5555567150000016  0.0840200040000028   F   F   F
  0.5555533169999975  0.2222233560000006  0.0840200040000028   F   F   F
  0.1111100019999967  0.1111100019999967  0.0840200040000028   F   F   F
  0.7777766589999970  0.7777766589999970  0.0840200040000028   F   F   F
  0.4444433450000034  0.4444433450000034  0.0840200040000028   F   F   F
  0.9999966620000009  0.3333366809999987  0.0840200040000028   F   F   F
  0.6666633489999967  0.0000033479999999  0.0840200040000028   F   F   F
  0.3333300050000005  0.6666700239999983  0.0840200040000028   F   F   F
  0.4444466830000025  0.7777766589999970  0.0840200040000028   F   F   F
  0.1111133469999999  0.4444433150000009  0.0840200040000028   F   F   F
  0.7777799959999996  0.1111099940000031  0.0840200040000028   F   F   F
  0.3333366809999987  0.9999966620000009  0.0840200040000028   F   F   F
  0.0000033479999999  0.6666633489999967  0.0840200040000028   F   F   F
  0.6666700239999983  0.3333300050000005  0.0840200040000028   F   F   F
  0.2222233410000030  0.2222233410000030  0.0840200040000028   F   F   F
  0.8888900279999987  0.8888900279999987  0.0840200040000028   F   F   F
  0.5555566549999966  0.5555566549999966  0.0840200040000028   F   F   F
  0.0000878576180447  0.1113574213313066  0.1420109730849683   T   T   T
  0.6667545086180446  0.7780241003313020  0.1420109730849683   T   T   T
  0.3334211956180405  0.4446907573313020  0.1420109730849683   T   T   T
  0.8889692174213577  0.3333487826537175  0.1423852954252048   T   T   T
  0.5556359044213606  0.0000154686537167  0.1423852954252048   T   T   T
  0.2223025454213597  0.6666820956537218  0.1423852954252048   T   T   T
  0.7782240058409564  0.5552483969208868  0.1420061796648890   T   T   T
  0.4448906628409566  0.2219150689208851  0.1420061796648890   T   T   T
  0.1115573418409587  0.8885817109208876  0.1420061796648890   T   T   T
  0.2228813923308576  0.9998058585812819  0.1423639659163530   T   T   T
  0.8895480343308532  0.6664725445812811  0.1423639659163530   T   T   T
  0.5562147203308524  0.3331392015812816  0.1423639659163530   T   T   T
  0.1112579185090644  0.2220835795555784  0.1423901994227236   T   T   T
  0.7779246055090603  0.8887502655555776  0.1423901994227236   T   T   T
  0.4445912625090606  0.5554168925555755  0.1423901994227236   T   T   T
  0.0001995482729495  0.4444004761851170  0.1423886815585372   T   T   T
  0.6668662342729487  0.1110671401851143  0.1423886815585372   T   T   T
  0.3335328912729491  0.7777338191851163  0.1423886815585372   T   T   T
  0.4442457403795361  0.8893167406102520  0.1423669566602566   T   T   T
  0.1109124043795407  0.5559834276102478  0.1423669566602566   T   T   T
  0.7775790543795371  0.2226500696102502  0.1423669566602566   T   T   T
  0.3333170554215303  0.1107087437170889  0.1423658314670240   T   T   T
  0.9999837124215305  0.7773753937170850  0.1423658314670240   T   T   T
  0.6666503984215297  0.4440420797170842  0.1423658314670240   T   T   T
  0.2221238462848508  0.3332311988166726  0.1420055319998985   T   T   T
  0.8887904882848536  0.9998978548166766  0.1420055319998985   T   T   T
  0.5554571742848529  0.6665645418166724  0.1420055319998985   T   T   T
  0.1133608391682519 -0.0000461780211691  0.1997350559915295   T   T   T
  0.7800275111682499  0.6666205079788300  0.1997350559915295   T   T   T
  0.4466941671682537  0.3332871649788303  0.1997350559915295   T   T   T
 -0.0000159097920750  0.2208025508773055  0.2005507432388217   T   T   T
  0.6666507772079281  0.8874692078773059  0.2005507432388217   T   T   T
  0.3333174342079282  0.5541358948773087  0.2005507432388217   T   T   T
  0.8879766137050200  0.4459468996395459  0.2005500663524078   T   T   T
  0.5546433007050229  0.1126135636395433  0.2005500663524078   T   T   T
  0.2213099417050221  0.7792802426395455  0.2005500663524078   T   T   T
  0.3333851209306080  0.8872265937800404  0.2009084506812862   T   T   T
  0.0000517869306126  0.5538932807800433  0.2009084506812862   T   T   T
  0.6667184339306120  0.2205599227800389  0.2009084506812862   T   T   T
  0.2210425050595771  0.1128164716105356  0.2009232888862007   T   T   T
  0.8877091610595738  0.7794831586105387  0.2009232888862007   T   T   T
  0.5543758480595766  0.4461498146105352  0.2009232888862007   T   T   T
  0.1131355276991144  0.3328412552004608  0.2005256761949896   T   T   T
  0.7798021916991186  0.9995079112004651  0.2005256761949896   T   T   T
  0.4464688486991120  0.6661745982004609  0.2005256761949896   T   T   T
  0.5539832663707133  0.7794883090438381  0.1997590520620747   T   T   T
  0.2206499373707147  0.4461549660438388  0.1997590520620747   T   T   T
  0.8873165793707104  0.1128216450438338  0.1997590520620747   T   T   T
  0.4466559945924285  0.9995818850087552  0.2008850990627755   T   T   T
  0.1133226585924259  0.6662485710087545  0.2008850990627755   T   T   T
  0.7799893375924281  0.3329152280087546  0.2008850990627755   T   T   T
  0.3337716830945143  0.2201581446202751  0.1997446947202810   T   T   T
  0.0004383500945155  0.8868248316202711  0.1997446947202810   T   T   T
  0.6671049970945152  0.5534914586202762  0.1997446947202810   T   T   T
  0.0007507419939668  0.9997485365673607  0.2556136034530431   T   T   T
  0.6674173919939628  0.6664152225673600  0.2556136034530431   T   T   T
  0.3340840789939659  0.3330818795673601  0.2556136034530431   T   T   T
  0.8903375519813901  0.2208728186877238  0.2605179349039154   T   T   T
  0.5570042379813964  0.8875394606877191  0.2605179349039154   T   T   T
  0.2236708799813920  0.5542061466877183  0.2605179349039154   T   T   T
  0.7792891936809384  0.4422247711826713  0.2598748069230092   T   T   T
  0.4459558506809391  0.1088914351826686  0.2598748069230092   T   T   T
  0.1126225296809412  0.7755580841826684  0.2598748069230092   T   T   T
  0.2219155053648031  0.8890301307879721  0.2605228701000738   T   T   T
  0.8885821763648049  0.5556968177879750  0.2605228701000738   T   T   T
  0.5552488633648006  0.2223634597879706  0.2605228701000738   T   T   T
  0.1131323297557436  0.1115827075999670  0.2598950299851127   T   T   T
  0.7797989787557436  0.7782493865999622  0.2598950299851127   T   T   T
  0.4464656657557464  0.4449160435999626  0.2598950299851127   T   T   T
  0.0007565092099387  0.3330609725367209  0.2575089116629483   T   T   T
  0.6674231952099378  0.9997276595367237  0.2575089116629483   T   T   T
  0.3340898522099383  0.6663942865367216  0.2575089116629483   T   T   T
  0.4432358494564374  0.7787407778141756  0.2598715586282649   T   T   T
  0.1099025134564348  0.4454074348141764  0.2598715586282649   T   T   T
  0.7765691924564370  0.1120741138141784  0.2598715586282649   T   T   T
  0.3340879062239789  0.9997443596499964  0.2577585620171658   T   T   T
  0.0007545732239801  0.6664110466499922  0.2577585620171658   T   T   T
  0.6674212192239759  0.3330777026499962  0.2577585620171658   T   T   T
  0.2233986773632434  0.2226328229477067  0.2605186980224231   T   T   T
  0.8900653483632378  0.8892994949477119  0.2605186980224231   T   T   T
  0.5567320353632407  0.5559661809477111  0.2605186980224231   T   T   T
  0.2059994073430631  0.8969839000329064  0.3142141839387715   T   T   T
  0.8726660793430614  0.5636505860329056  0.3142141839387715   T   T   T
  0.5393327653430606  0.2303172280329084  0.3142141839387715   T   T   T
  0.7740406728766713  0.4531646539062492  0.3157331479183215   T   T   T
  0.4407073298766716  0.1198313179062466  0.3157331479183215   T   T   T
  0.1073740088766739  0.7864979679062500  0.3157331479183215   T   T   T
  0.4541889043629745  0.7729319705163177  0.3157238419619543   T   T   T
  0.1208555683629719  0.4395986275163181  0.3157238419619543   T   T   T
  0.7875222173629718  0.1062653065163202  0.3157238419619543   T   T   T
  0.8981316315323887  0.2049836108892248  0.3142088595939940   T   T   T
  0.5647983175323880  0.8716502528892275  0.3142088595939940   T   T   T
  0.2314649595323908  0.5383169388892267  0.3142088595939940   T   T   T
  0.2316042052139174  0.2307506738778950  0.3142265949572948   T   T   T
  0.8982708762139189  0.8974173458778929  0.3142265949572948   T   T   T
  0.5649375632139146  0.5640840318778921  0.3142265949572948   T   T   T
  0.1072737638522400  0.1063637999501800  0.3157510218477837   T   T   T
  0.7739404208522401  0.7730304569501805  0.3157510218477837   T   T   T
  0.4406071068522469  0.4396971439501830  0.3157510218477837   T   T   T
  0.2795746579557407  0.8601194920508025  0.3223897486994893   T   T   T
  0.9462413449557364  0.5267861790508054  0.3223897486994893   T   T   T
  0.6129079719557414  0.1934528200508040  0.3223897486994893   T   T   T
  0.8614822033100478  0.2785556582967164  0.3223882164610875   T   T   T
  0.5281488893100470  0.9452223452967190  0.3223882164610875   T   T   T
  0.1948155313100497  0.6118889722967169  0.3223882164610875   T   T   T
  0.1947674297545628  0.1940909666495772  0.3224719832601100   T   T   T
  0.8614341017545677  0.8607576376495714  0.3224719832601100   T   T   T
  0.5281007877545669  0.5274243246495742  0.3224719832601100   T   T   T
  0.1658353802444164  0.3594532092696758  0.3192809408624742   T   T   T
  0.8325020672444191  0.0261198752696735  0.3192809408624742   T   T   T
  0.4991687242444198  0.6927865232696765  0.3192809408624742   T   T   T
  0.4989045926864547  0.8082601738965807  0.3193466694688302   T   T   T
  0.1655712646864528  0.4749268298965776  0.3193466694688302   T   T   T
  0.8322379056864520  0.1415935018965828  0.3193466694688302   T   T   T
  0.0271547471420525  0.1416232690701913  0.3193156790241838   T   T   T
  0.6938214131420571  0.8082899260701918  0.3193156790241838   T   T   T
  0.3604880701420575  0.4749566120701909  0.3193156790241838   T   T   T
  0.1425048647911809  0.0263192464857052  0.3193637189491790   T   T   T
  0.8091715207911777  0.6929859334857011  0.3193637189491790   T   T   T
  0.4758382077911804  0.3596525894857049  0.3193637189491790   T   T   T
  0.8093916862883608  0.4979299231152135  0.3193082076229421   T   T   T
  0.4760583432883613  0.1645965951152185  0.3193082076229421   T   T   T
  0.1427250142883628  0.8312632371152140  0.3193082076229421   T   T   T
  0.3606440995722504  0.1647675713365861  0.3193357716120694   T   T   T
  0.0273107655722552  0.8314342133365885  0.3193357716120694   T   T   T
  0.6939774425722501  0.4981009003365845  0.3193357716120694   T   T   T
 
  0.00000000E+00  0.00000000E+00  0.00000000E+00
  0.00000000E+00  0.00000000E+00  0.00000000E+00
  0.00000000E+00  0.00000000E+00  0.00000000E+00
  0.00000000E+00  0.00000000E+00  0.00000000E+00
  0.00000000E+00  0.00000000E+00  0.00000000E+00
  0.00000000E+00  0.00000000E+00  0.00000000E+00
  0.00000000E+00  0.00000000E+00  0.00000000E+00
  0.00000000E+00  0.00000000E+00  0.00000000E+00
  0.00000000E+00  0.00000000E+00  0.00000000E+00
  0.00000000E+00  0.00000000E+00  0.00000000E+00
  0.00000000E+00  0.00000000E+00  0.00000000E+00
  0.00000000E+00  0.00000000E+00  0.00000000E+00
  0.00000000E+00  0.00000000E+00  0.00000000E+00
  0.00000000E+00  0.00000000E+00  0.00000000E+00
  0.00000000E+00  0.00000000E+00  0.00000000E+00
  0.00000000E+00  0.00000000E+00  0.00000000E+00
  0.00000000E+00  0.00000000E+00  0.00000000E+00
  0.00000000E+00  0.00000000E+00  0.00000000E+00
  0.00000000E+00  0.00000000E+00  0.00000000E+00
  0.00000000E+00  0.00000000E+00  0.00000000E+00
  0.00000000E+00  0.00000000E+00  0.00000000E+00
  0.00000000E+00  0.00000000E+00  0.00000000E+00
  0.00000000E+00  0.00000000E+00  0.00000000E+00
  0.00000000E+00  0.00000000E+00  0.00000000E+00
  0.00000000E+00  0.00000000E+00  0.00000000E+00
  0.00000000E+00  0.00000000E+00  0.00000000E+00
  0.00000000E+00  0.00000000E+00  0.00000000E+00
  0.00000000E+00  0.00000000E+00  0.00000000E+00
  0.00000000E+00  0.00000000E+00  0.00000000E+00
  0.00000000E+00  0.00000000E+00  0.00000000E+00
  0.00000000E+00  0.00000000E+00  0.00000000E+00
  0.00000000E+00  0.00000000E+00  0.00000000E+00
  0.00000000E+00  0.00000000E+00  0.00000000E+00
  0.00000000E+00  0.00000000E+00  0.00000000E+00
  0.00000000E+00  0.00000000E+00  0.00000000E+00
  0.00000000E+00  0.00000000E+00  0.00000000E+00
  0.00000000E+00  0.00000000E+00  0.00000000E+00
  0.00000000E+00  0.00000000E+00  0.00000000E+00
  0.00000000E+00  0.00000000E+00  0.00000000E+00
  0.00000000E+00  0.00000000E+00  0.00000000E+00
  0.00000000E+00  0.00000000E+00  0.00000000E+00
  0.00000000E+00  0.00000000E+00  0.00000000E+00
  0.00000000E+00  0.00000000E+00  0.00000000E+00
  0.00000000E+00  0.00000000E+00  0.00000000E+00
  0.00000000E+00  0.00000000E+00  0.00000000E+00
  0.00000000E+00  0.00000000E+00  0.00000000E+00
  0.00000000E+00  0.00000000E+00  0.00000000E+00
  0.00000000E+00  0.00000000E+00  0.00000000E+00
  0.00000000E+00  0.00000000E+00  0.00000000E+00
  0.00000000E+00  0.00000000E+00  0.00000000E+00
  0.00000000E+00  0.00000000E+00  0.00000000E+00
  0.00000000E+00  0.00000000E+00  0.00000000E+00
  0.00000000E+00  0.00000000E+00  0.00000000E+00
  0.00000000E+00  0.00000000E+00  0.00000000E+00
  0.00000000E+00  0.00000000E+00  0.00000000E+00
  0.00000000E+00  0.00000000E+00  0.00000000E+00
  0.00000000E+00  0.00000000E+00  0.00000000E+00
  0.00000000E+00  0.00000000E+00  0.00000000E+00
  0.00000000E+00  0.00000000E+00  0.00000000E+00
  0.00000000E+00  0.00000000E+00  0.00000000E+00
  0.00000000E+00  0.00000000E+00  0.00000000E+00
  0.00000000E+00  0.00000000E+00  0.00000000E+00
  0.00000000E+00  0.00000000E+00  0.00000000E+00
  0.00000000E+00  0.00000000E+00  0.00000000E+00
  0.00000000E+00  0.00000000E+00  0.00000000E+00
  0.00000000E+00  0.00000000E+00  0.00000000E+00
  0.00000000E+00  0.00000000E+00  0.00000000E+00
  0.00000000E+00  0.00000000E+00  0.00000000E+00
  0.00000000E+00  0.00000000E+00  0.00000000E+00
  0.00000000E+00  0.00000000E+00  0.00000000E+00
  0.00000000E+00  0.00000000E+00  0.00000000E+00
  0.00000000E+00  0.00000000E+00  0.00000000E+00
  0.00000000E+00  0.00000000E+00  0.00000000E+00
  0.00000000E+00  0.00000000E+00  0.00000000E+00
  0.00000000E+00  0.00000000E+00  0.00000000E+00
  0.00000000E+00  0.00000000E+00  0.00000000E+00
  0.00000000E+00  0.00000000E+00  0.00000000E+00
  0.00000000E+00  0.00000000E+00  0.00000000E+00
  0.00000000E+00  0.00000000E+00  0.00000000E+00
  0.00000000E+00  0.00000000E+00  0.00000000E+00
  0.00000000E+00  0.00000000E+00  0.00000000E+00
  0.00000000E+00  0.00000000E+00  0.00000000E+00
  0.00000000E+00  0.00000000E+00  0.00000000E+00
  0.00000000E+00  0.00000000E+00  0.00000000E+00
  0.00000000E+00  0.00000000E+00  0.00000000E+00
  0.00000000E+00  0.00000000E+00  0.00000000E+00
  0.00000000E+00  0.00000000E+00  0.00000000E+00
  0.00000000E+00  0.00000000E+00  0.00000000E+00
  0.00000000E+00  0.00000000E+00  0.00000000E+00
  0.00000000E+00  0.00000000E+00  0.00000000E+00
  0.00000000E+00  0.00000000E+00  0.00000000E+00
  0.00000000E+00  0.00000000E+00  0.00000000E+00
  0.00000000E+00  0.00000000E+00  0.00000000E+00
  0.00000000E+00  0.00000000E+00  0.00000000E+00
  0.00000000E+00  0.00000000E+00  0.00000000E+00
  0.00000000E+00  0.00000000E+00  0.00000000E+00
  0.00000000E+00  0.00000000E+00  0.00000000E+00
  0.00000000E+00  0.00000000E+00  0.00000000E+00
  0.00000000E+00  0.00000000E+00  0.00000000E+00
  0.00000000E+00  0.00000000E+00  0.00000000E+00
  0.00000000E+00  0.00000000E+00  0.00000000E+00
  0.00000000E+00  0.00000000E+00  0.00000000E+00
  0.00000000E+00  0.00000000E+00  0.00000000E+00
  0.00000000E+00  0.00000000E+00  0.00000000E+00
  0.00000000E+00  0.00000000E+00  0.00000000E+00
  0.00000000E+00  0.00000000E+00  0.00000000E+00
  0.00000000E+00  0.00000000E+00  0.00000000E+00
  0.00000000E+00  0.00000000E+00  0.00000000E+00
  0.00000000E+00  0.00000000E+00  0.00000000E+00
  0.00000000E+00  0.00000000E+00  0.00000000E+00
  0.00000000E+00  0.00000000E+00  0.00000000E+00
  0.00000000E+00  0.00000000E+00  0.00000000E+00
  0.00000000E+00  0.00000000E+00  0.00000000E+00
  0.00000000E+00  0.00000000E+00  0.00000000E+00
  0.00000000E+00  0.00000000E+00  0.00000000E+00
  0.00000000E+00  0.00000000E+00  0.00000000E+00
  0.00000000E+00  0.00000000E+00  0.00000000E+00
  0.00000000E+00  0.00000000E+00  0.00000000E+00
  0.00000000E+00  0.00000000E+00  0.00000000E+00
  0.00000000E+00  0.00000000E+00  0.00000000E+00
  0.00000000E+00  0.00000000E+00  0.00000000E+00
  0.00000000E+00  0.00000000E+00  0.00000000E+00
  0.00000000E+00  0.00000000E+00  0.00000000E+00
  0.00000000E+00  0.00000000E+00  0.00000000E+00
  0.00000000E+00  0.00000000E+00  0.00000000E+00
  0.00000000E+00  0.00000000E+00  0.00000000E+00
  0.00000000E+00  0.00000000E+00  0.00000000E+00
  0.00000000E+00  0.00000000E+00  0.00000000E+00
  0.00000000E+00  0.00000000E+00  0.00000000E+00
  0.00000000E+00  0.00000000E+00  0.00000000E+00
  0.00000000E+00  0.00000000E+00  0.00000000E+00
  0.00000000E+00  0.00000000E+00  0.00000000E+00
  0.00000000E+00  0.00000000E+00  0.00000000E+00
  0.00000000E+00  0.00000000E+00  0.00000000E+00
  0.00000000E+00  0.00000000E+00  0.00000000E+00
  0.00000000E+00  0.00000000E+00  0.00000000E+00
  0.00000000E+00  0.00000000E+00  0.00000000E+00
  0.00000000E+00  0.00000000E+00  0.00000000E+00
  0.00000000E+00  0.00000000E+00  0.00000000E+00
  0.00000000E+00  0.00000000E+00  0.00000000E+00
  0.00000000E+00  0.00000000E+00  0.00000000E+00
  0.00000000E+00  0.00000000E+00  0.00000000E+00
  0.00000000E+00  0.00000000E+00  0.00000000E+00
  0.00000000E+00  0.00000000E+00  0.00000000E+00
  0.00000000E+00  0.00000000E+00  0.00000000E+00
  0.00000000E+00  0.00000000E+00  0.00000000E+00
  0.00000000E+00  0.00000000E+00  0.00000000E+00
  0.00000000E+00  0.00000000E+00  0.00000000E+00
  0.00000000E+00  0.00000000E+00  0.00000000E+00
  0.00000000E+00  0.00000000E+00  0.00000000E+00
  0.00000000E+00  0.00000000E+00  0.00000000E+00
  0.00000000E+00  0.00000000E+00  0.00000000E+00
  0.00000000E+00  0.00000000E+00  0.00000000E+00
  0.00000000E+00  0.00000000E+00  0.00000000E+00
  0.00000000E+00  0.00000000E+00  0.00000000E+00
  0.00000000E+00  0.00000000E+00  0.00000000E+00
  0.00000000E+00  0.00000000E+00  0.00000000E+00
  0.00000000E+00  0.00000000E+00  0.00000000E+00
  0.00000000E+00  0.00000000E+00  0.00000000E+00
  0.00000000E+00  0.00000000E+00  0.00000000E+00
  0.00000000E+00  0.00000000E+00  0.00000000E+00
  0.00000000E+00  0.00000000E+00  0.00000000E+00
  0.00000000E+00  0.00000000E+00  0.00000000E+00
  0.00000000E+00  0.00000000E+00  0.00000000E+00
  0.00000000E+00  0.00000000E+00  0.00000000E+00
  0.00000000E+00  0.00000000E+00  0.00000000E+00
  0.00000000E+00  0.00000000E+00  0.00000000E+00
  0.00000000E+00  0.00000000E+00  0.00000000E+00
  0.00000000E+00  0.00000000E+00  0.00000000E+00
  0.00000000E+00  0.00000000E+00  0.00000000E+00
  0.00000000E+00  0.00000000E+00  0.00000000E+00
  0.00000000E+00  0.00000000E+00  0.00000000E+00
  0.00000000E+00  0.00000000E+00  0.00000000E+00
  0.00000000E+00  0.00000000E+00  0.00000000E+00
  0.00000000E+00  0.00000000E+00  0.00000000E+00
  0.00000000E+00  0.00000000E+00  0.00000000E+00
  0.00000000E+00  0.00000000E+00  0.00000000E+00
  0.00000000E+00  0.00000000E+00  0.00000000E+00
  0.00000000E+00  0.00000000E+00  0.00000000E+00
  0.00000000E+00  0.00000000E+00  0.00000000E+00
