Generated by VASPKIT code               
   1.00000000000000     
    14.5765924453999993    0.0000000000000000    0.0000000000000000
     7.2882962226999997   12.6236993582999997    0.0000000000000000
     0.0000000000000000    0.0000000000000000   39.1618995667000007
   Pt   O    H 
   135    18    24
Selective dynamics
Direct
  0.1111100019999967  0.0000000000000000  0.0255399999999995   F   F   F
  0.7777766589999970  0.6666666870000029  0.0255399999999995   F   F   F
  0.4444433450000034  0.3333333429999996  0.0255399999999995   F   F   F
  0.9999966620000009  0.2222266639999972  0.0255399999999995   F   F   F
  0.6666633489999967  0.8888933059999999  0.0255399999999995   F   F   F
  0.3333300050000005  0.5555599930000028  0.0255399999999995   F   F   F
  0.8888866899999996  0.4444466530000000  0.0255399999999995   F   F   F
  0.5555533770000025  0.1111133169999974  0.0255399999999995   F   F   F
  0.2222200189999981  0.7777799959999996  0.0255399999999995   F   F   F
  0.3333299760000017  0.8888900279999987  0.0255399999999995   F   F   F
  0.9999966620000009  0.5555567150000016  0.0255399999999995   F   F   F
  0.6666632889999988  0.2222233560000006  0.0255399999999995   F   F   F
  0.2222166509999965  0.1111166700000012  0.0255399999999995   F   F   F
  0.8888832929999992  0.7777833339999987  0.0255399999999995   F   F   F
  0.5555499789999985  0.4444499909999990  0.0255399999999995   F   F   F
  0.1111066559999969  0.3333366809999987  0.0255399999999995   F   F   F
  0.7777733209999980  0.0000033479999999  0.0255399999999995   F   F   F
  0.4444399770000018  0.6666700239999983  0.0255399999999995   F   F   F
  0.5555566549999966  0.7777766589999970  0.0255399999999995   F   F   F
  0.2222233270000018  0.4444433150000009  0.0255399999999995   F   F   F
  0.8888899680000009  0.1111099940000031  0.0255399999999995   F   F   F
  0.4444433450000034  0.0000033179999974  0.0255399999999995   F   F   F
  0.1111100090000008  0.6666699649999970  0.0255399999999995   F   F   F
  0.7777766589999970  0.3333366510000033  0.0255399999999995   F   F   F
  0.3333333429999996  0.2222233270000018  0.0255399999999995   F   F   F
  0.0000000000000000  0.8888899680000009  0.0255399999999995   F   F   F
  0.6666666870000029  0.5555566549999966  0.0255399999999995   F   F   F
  0.0000000000000000  0.0000000000000000  0.0840200040000028   F   F   F
  0.6666666870000029  0.6666666870000029  0.0840200040000028   F   F   F
  0.3333333429999996  0.3333333429999996  0.0840200040000028   F   F   F
  0.8888900279999987  0.2222200040000004  0.0840200040000028   F   F   F
  0.5555567150000016  0.8888866899999996  0.0840200040000028   F   F   F
  0.2222233560000006  0.5555533169999975  0.0840200040000028   F   F   F
  0.7777766589999970  0.4444466830000025  0.0840200040000028   F   F   F
  0.4444433150000009  0.1111133469999999  0.0840200040000028   F   F   F
  0.1111099940000031  0.7777799959999996  0.0840200040000028   F   F   F
  0.2222200040000004  0.8888900279999987  0.0840200040000028   F   F   F
  0.8888866899999996  0.5555567150000016  0.0840200040000028   F   F   F
  0.5555533169999975  0.2222233560000006  0.0840200040000028   F   F   F
  0.1111100019999967  0.1111100019999967  0.0840200040000028   F   F   F
  0.7777766589999970  0.7777766589999970  0.0840200040000028   F   F   F
  0.4444433450000034  0.4444433450000034  0.0840200040000028   F   F   F
  0.9999966620000009  0.3333366809999987  0.0840200040000028   F   F   F
  0.6666633489999967  0.0000033479999999  0.0840200040000028   F   F   F
  0.3333300050000005  0.6666700239999983  0.0840200040000028   F   F   F
  0.4444466830000025  0.7777766589999970  0.0840200040000028   F   F   F
  0.1111133469999999  0.4444433150000009  0.0840200040000028   F   F   F
  0.7777799959999996  0.1111099940000031  0.0840200040000028   F   F   F
  0.3333366809999987  0.9999966620000009  0.0840200040000028   F   F   F
  0.0000033479999999  0.6666633489999967  0.0840200040000028   F   F   F
  0.6666700239999983  0.3333300050000005  0.0840200040000028   F   F   F
  0.2222233410000030  0.2222233410000030  0.0840200040000028   F   F   F
  0.8888900279999987  0.8888900279999987  0.0840200040000028   F   F   F
  0.5555566549999966  0.5555566549999966  0.0840200040000028   F   F   F
  0.9997537892667361  0.1117792014852790  0.1420037642850443   T   T   T
  0.6664204562667373  0.7784458874852853  0.1420037642850443   T   T   T
  0.3330871132667380  0.4451125444852856  0.1420037642850443   T   T   T
  0.8884712905506155  0.3340479190294148  0.1423212195437266   T   T   T
  0.5551379765506147  0.0007145860294160  0.1423212195437266   T   T   T
  0.2218046185506104  0.6673812620294144  0.1423212195437266   T   T   T
  0.7772458594886923  0.5556687793752403  0.1425214200733710   T   T   T
  0.4439125164886926  0.2223354513752383  0.1425214200733710   T   T   T
  0.1105791954886947  0.8890020933752411  0.1425214200733710   T   T   T
  0.2224331813571356  0.0000017942290125  0.1422083417288307   T   T   T
  0.8890998383571359  0.6666684812290082  0.1422083417288307   T   T   T
  0.5557665243571351  0.3333351382290086  0.1422083417288307   T   T   T
  0.1113386785807372  0.2224375120969892  0.1420659232343545   T   T   T
  0.7780053425807414  0.8891041840969943  0.1420659232343545   T   T   T
  0.4446719995807351  0.5557708700969936  0.1420659232343545   T   T   T
 -0.0000669096567806  0.4451669786635911  0.1422909622538830   T   T   T
  0.6665997373432189  0.1118336426635884  0.1422909622538830   T   T   T
  0.3332664243432077  0.7785003226635872  0.1422909622538830   T   T   T
  0.4445944062397738  0.8888926763837086  0.1422937913928244   T   T   T
  0.1112610702397712  0.5555593633837115  0.1422937913928244   T   T   T
  0.7779277192397710  0.2222260053837141  0.1422937913928244   T   T   T
  0.3332573489114977  0.1114365411755699  0.1426169029871304   T   T   T
 -0.0000759850884978  0.7781031901755696  0.1426169029871304   T   T   T
  0.6665906919114971  0.4447698771755653  0.1426169029871304   T   T   T
  0.2226741812590467  0.3331627823417070  0.1423495198188668   T   T   T
  0.8893408232590492  0.9998294393417071  0.1423495198188668   T   T   T
  0.5560075092590484  0.6664961253417063  0.1423495198188668   T   T   T
  0.1125482695825429  0.0009564101434669  0.1999966441239434   T   T   T
  0.7792149635825427  0.6676230961434663  0.1999966441239434   T   T   T
  0.4458815905825406  0.3342897531434665  0.1999966441239434   T   T   T
  0.9997170675627125  0.2220349522523486  0.2000314222543322   T   T   T
  0.6663837435627109  0.8887016242523468  0.2000314222543322   T   T   T
  0.3330504005627111  0.5553683112523496  0.2000314222543322   T   T   T
  0.8868599745974105  0.4480508463611129  0.2006228982929275   T   T   T
  0.5535266615974134  0.1147175103611103  0.2006228982929275   T   T   T
  0.2201933025974126  0.7813841603611139  0.2006228982929275   T   T   T
  0.3334110826507141  0.8883999729974130  0.2008502599465272   T   T   T
  0.0000777496507152  0.5550666599974159  0.2008502599465272   T   T   T
  0.6667443966507146  0.2217333019974186  0.2008502599465272   T   T   T
  0.2205130015393531  0.1134732619572690  0.2004970221241997   T   T   T
  0.8871796425393523  0.7801399259572736  0.2004970221241997   T   T   T
  0.5538463295393552  0.4468065829572739  0.2004970221241997   T   T   T
  0.1131383560906948  0.3344283943503658  0.2001413086684915   T   T   T
  0.7798050060906910  0.0010950513503660  0.2001413086684915   T   T   T
  0.4464716920906904  0.6677617383503618  0.2001413086684915   T   T   T
  0.5538593327031284  0.7802423594743897  0.2003867373147752   T   T   T
  0.2205260047031338  0.4469090164743904  0.2003867373147752   T   T   T
  0.8871926467031291  0.1135756954743924  0.2003867373147752   T   T   T
  0.4468249738386413  0.0004217850402986  0.2008352636365412   T   T   T
  0.1134916388386423  0.6670884710402976  0.2008352636365412   T   T   T
  0.7801582878386421  0.3337551280402982  0.2008352636365412   T   T   T
  0.3339933644751764  0.2195974481586157  0.2016215492629446   T   T   T
  0.0006600314751776  0.8862641191586175  0.2016215492629446   T   T   T
  0.6673267074751761  0.5529308061586203  0.2016215492629446   T   T   T
  0.0000908913363770  0.0020862935277948  0.2567975363563802   T   T   T
  0.6667575493363739  0.6687529805278051  0.2567975363563802   T   T   T
  0.3334242353363801  0.3354196375277980  0.2567975363563802   T   T   T
  0.8899001370016137  0.2229828182970999  0.2602089101510382   T   T   T
  0.5565668230016130  0.8896494902970983  0.2602089101510382   T   T   T
  0.2232334650016153  0.5563161772971011  0.2602089101510382   T   T   T
  0.7787231785397521  0.4466785824903834  0.2615780471228178   T   T   T
  0.4453898355397528  0.1133452464903807  0.2615780471228178   T   T   T
  0.1120565145397550  0.7800119264903793  0.2615780471228178   T   T   T
  0.2216056340922858  0.8926479730998368  0.2606238196785844   T   T   T
  0.8882722910922861  0.5593146600998397  0.2606238196785844   T   T   T
  0.5549389780922890  0.2259813010998385  0.2606238196785844   T   T   T
  0.1120396418232975  0.1144638192869419  0.2593175301790170   T   T   T
  0.7787063358232975  0.7811304832869324  0.2593175301790170   T   T   T
  0.4453729628233025  0.4477971402869397  0.2593175301790171   T   T   T
  0.9997499165912068  0.3362119123155187  0.2564153542066528   T   T   T
  0.6664165635912064  0.0028785783155235  0.2564153542066528   T   T   T
  0.3330832495912129  0.6695452253155231  0.2564153542066528   T   T   T
  0.4429844596996478  0.7817353486483217  0.2603283530479723   T   T   T
  0.1096511236996523  0.4484020056483223  0.2603283530479723   T   T   T
  0.7763177726996521  0.1150686846483244  0.2603283530479723   T   T   T
  0.3341050032894783  0.0030741169678561  0.2573917370298229   T   T   T
  0.0007716702894868  0.6697407639678559  0.2573917370298229   T   T   T
  0.6674383462894780  0.3364074509678585  0.2573917370298229   T   T   T
  0.2231898890242991  0.2251854576569937  0.2606320505356496   T   T   T
  0.8898565610242970  0.8918521296569990  0.2606320505356496   T   T   T
  0.5565232470242962  0.5585188156569982  0.2606320505356496   T   T   T
  0.2156004532220515  0.9040968179634303  0.3131478752634982   T   T   T
  0.8822671242220461  0.5707635039634296  0.3131478752634982   T   T   T
  0.5489338112220490  0.2374301459634321  0.3131478752634982   T   T   T
  0.8008380675410145  0.4303681222670577  0.3122638942639786   T   T   T
  0.4675047245410078  0.0970347862670622  0.3122638942639786   T   T   T
  0.1341713965410129  0.7637014652670574  0.3122638942639786   T   T   T
  0.4427457961601274  0.7782323177739165  0.3130800012821265   T   T   T
  0.1094124601601320  0.4448989747739168  0.3130800012821265   T   T   T
  0.7760791391601273  0.1115656537739191  0.3130800012821265   T   T   T
  0.9006737244174958  0.2132141705589085  0.3128539023828980   T   T   T
  0.5673404114174916  0.8798808415589101  0.3128539023828980   T   T   T
  0.2340070524174908  0.5465475285589130  0.3128539023828980   T   T   T
  0.2041143438829425  0.2416637911777373  0.3150191762289868   T   T   T
  0.8707810298829488  0.9083304781777405  0.3150191762289868   T   T   T
  0.5374476568829467  0.5749971051777384  0.3150191762289868   T   T   T
  0.1036780693266908  0.1142276015289774  0.3145624069995002   T   T   T
  0.7703447563266868  0.7808942585289776  0.3145624069995002   T   T   T
  0.4370114133266869  0.4475609455289735  0.3145624069995002   T   T   T
  0.2918586574339475  0.8678817930927787  0.3194205529417878   T   T   T
  0.9585253144339476  0.5345484800927816  0.3194205529417878   T   T   T
  0.6251920004339468  0.2012151220927770  0.3194205529417878   T   T   T
  0.8678540744120551  0.2901268685337241  0.3189701305243891   T   T   T
  0.5345207604120543  0.9567935545337302  0.3189701305243891   T   T   T
  0.2011874024120572  0.6234601815337281  0.3189701305243891   T   T   T
  0.1607386459478312  0.2096127433229485  0.3215094726328943   T   T   T
  0.8274052879478269  0.8762793853229512  0.3215094726328943   T   T   T
  0.4940719739478261  0.5429460713229505  0.3215094726328943   T   T   T
  0.1627653315172004  0.3237045477995930  0.3182690337035701   T   T   T
  0.8294320035171983  0.9903712137995904  0.3182690337035701   T   T   T
  0.4960986595171954  0.6570378907995924  0.3182690337035701   T   T   T
  0.4854243242087075  0.8119066324758109  0.3192017070790067   T   T   T
  0.1520909962087055  0.4785732894758113  0.3192017070790067   T   T   T
  0.8187576382087012  0.1452399614758093  0.3192017070790067   T   T   T
  0.0212185634125943  0.1499820105519040  0.3178607231942422   T   T   T
  0.6878852584125907  0.8166486525518996  0.3178607231942422   T   T   T
  0.3545518854125886  0.4833153395519024  0.3178607231942422   T   T   T
  0.1434416308819534  0.0342648117261047  0.3191825220201194   T   T   T
  0.8101082728819561  0.7009314897261032  0.3191825220201194   T   T   T
  0.4767749588819553  0.3675981457261072  0.3191825220201194   T   T   T
  0.8297736803577800  0.4774415800008235  0.3181233811873380   T   T   T
  0.4964403373577804  0.1441082510008250  0.3181233811873380   T   T   T
  0.1631070083577819  0.8107749230008231  0.3181233811873380   T   T   T
 
  0.00000000E+00  0.00000000E+00  0.00000000E+00
  0.00000000E+00  0.00000000E+00  0.00000000E+00
  0.00000000E+00  0.00000000E+00  0.00000000E+00
  0.00000000E+00  0.00000000E+00  0.00000000E+00
  0.00000000E+00  0.00000000E+00  0.00000000E+00
  0.00000000E+00  0.00000000E+00  0.00000000E+00
  0.00000000E+00  0.00000000E+00  0.00000000E+00
  0.00000000E+00  0.00000000E+00  0.00000000E+00
  0.00000000E+00  0.00000000E+00  0.00000000E+00
  0.00000000E+00  0.00000000E+00  0.00000000E+00
  0.00000000E+00  0.00000000E+00  0.00000000E+00
  0.00000000E+00  0.00000000E+00  0.00000000E+00
  0.00000000E+00  0.00000000E+00  0.00000000E+00
  0.00000000E+00  0.00000000E+00  0.00000000E+00
  0.00000000E+00  0.00000000E+00  0.00000000E+00
  0.00000000E+00  0.00000000E+00  0.00000000E+00
  0.00000000E+00  0.00000000E+00  0.00000000E+00
  0.00000000E+00  0.00000000E+00  0.00000000E+00
  0.00000000E+00  0.00000000E+00  0.00000000E+00
  0.00000000E+00  0.00000000E+00  0.00000000E+00
  0.00000000E+00  0.00000000E+00  0.00000000E+00
  0.00000000E+00  0.00000000E+00  0.00000000E+00
  0.00000000E+00  0.00000000E+00  0.00000000E+00
  0.00000000E+00  0.00000000E+00  0.00000000E+00
  0.00000000E+00  0.00000000E+00  0.00000000E+00
  0.00000000E+00  0.00000000E+00  0.00000000E+00
  0.00000000E+00  0.00000000E+00  0.00000000E+00
  0.00000000E+00  0.00000000E+00  0.00000000E+00
  0.00000000E+00  0.00000000E+00  0.00000000E+00
  0.00000000E+00  0.00000000E+00  0.00000000E+00
  0.00000000E+00  0.00000000E+00  0.00000000E+00
  0.00000000E+00  0.00000000E+00  0.00000000E+00
  0.00000000E+00  0.00000000E+00  0.00000000E+00
  0.00000000E+00  0.00000000E+00  0.00000000E+00
  0.00000000E+00  0.00000000E+00  0.00000000E+00
  0.00000000E+00  0.00000000E+00  0.00000000E+00
  0.00000000E+00  0.00000000E+00  0.00000000E+00
  0.00000000E+00  0.00000000E+00  0.00000000E+00
  0.00000000E+00  0.00000000E+00  0.00000000E+00
  0.00000000E+00  0.00000000E+00  0.00000000E+00
  0.00000000E+00  0.00000000E+00  0.00000000E+00
  0.00000000E+00  0.00000000E+00  0.00000000E+00
  0.00000000E+00  0.00000000E+00  0.00000000E+00
  0.00000000E+00  0.00000000E+00  0.00000000E+00
  0.00000000E+00  0.00000000E+00  0.00000000E+00
  0.00000000E+00  0.00000000E+00  0.00000000E+00
  0.00000000E+00  0.00000000E+00  0.00000000E+00
  0.00000000E+00  0.00000000E+00  0.00000000E+00
  0.00000000E+00  0.00000000E+00  0.00000000E+00
  0.00000000E+00  0.00000000E+00  0.00000000E+00
  0.00000000E+00  0.00000000E+00  0.00000000E+00
  0.00000000E+00  0.00000000E+00  0.00000000E+00
  0.00000000E+00  0.00000000E+00  0.00000000E+00
  0.00000000E+00  0.00000000E+00  0.00000000E+00
  0.00000000E+00  0.00000000E+00  0.00000000E+00
  0.00000000E+00  0.00000000E+00  0.00000000E+00
  0.00000000E+00  0.00000000E+00  0.00000000E+00
  0.00000000E+00  0.00000000E+00  0.00000000E+00
  0.00000000E+00  0.00000000E+00  0.00000000E+00
  0.00000000E+00  0.00000000E+00  0.00000000E+00
  0.00000000E+00  0.00000000E+00  0.00000000E+00
  0.00000000E+00  0.00000000E+00  0.00000000E+00
  0.00000000E+00  0.00000000E+00  0.00000000E+00
  0.00000000E+00  0.00000000E+00  0.00000000E+00
  0.00000000E+00  0.00000000E+00  0.00000000E+00
  0.00000000E+00  0.00000000E+00  0.00000000E+00
  0.00000000E+00  0.00000000E+00  0.00000000E+00
  0.00000000E+00  0.00000000E+00  0.00000000E+00
  0.00000000E+00  0.00000000E+00  0.00000000E+00
  0.00000000E+00  0.00000000E+00  0.00000000E+00
  0.00000000E+00  0.00000000E+00  0.00000000E+00
  0.00000000E+00  0.00000000E+00  0.00000000E+00
  0.00000000E+00  0.00000000E+00  0.00000000E+00
  0.00000000E+00  0.00000000E+00  0.00000000E+00
  0.00000000E+00  0.00000000E+00  0.00000000E+00
  0.00000000E+00  0.00000000E+00  0.00000000E+00
  0.00000000E+00  0.00000000E+00  0.00000000E+00
  0.00000000E+00  0.00000000E+00  0.00000000E+00
  0.00000000E+00  0.00000000E+00  0.00000000E+00
  0.00000000E+00  0.00000000E+00  0.00000000E+00
  0.00000000E+00  0.00000000E+00  0.00000000E+00
  0.00000000E+00  0.00000000E+00  0.00000000E+00
  0.00000000E+00  0.00000000E+00  0.00000000E+00
  0.00000000E+00  0.00000000E+00  0.00000000E+00
  0.00000000E+00  0.00000000E+00  0.00000000E+00
  0.00000000E+00  0.00000000E+00  0.00000000E+00
  0.00000000E+00  0.00000000E+00  0.00000000E+00
  0.00000000E+00  0.00000000E+00  0.00000000E+00
  0.00000000E+00  0.00000000E+00  0.00000000E+00
  0.00000000E+00  0.00000000E+00  0.00000000E+00
  0.00000000E+00  0.00000000E+00  0.00000000E+00
  0.00000000E+00  0.00000000E+00  0.00000000E+00
  0.00000000E+00  0.00000000E+00  0.00000000E+00
  0.00000000E+00  0.00000000E+00  0.00000000E+00
  0.00000000E+00  0.00000000E+00  0.00000000E+00
  0.00000000E+00  0.00000000E+00  0.00000000E+00
  0.00000000E+00  0.00000000E+00  0.00000000E+00
  0.00000000E+00  0.00000000E+00  0.00000000E+00
  0.00000000E+00  0.00000000E+00  0.00000000E+00
  0.00000000E+00  0.00000000E+00  0.00000000E+00
  0.00000000E+00  0.00000000E+00  0.00000000E+00
  0.00000000E+00  0.00000000E+00  0.00000000E+00
  0.00000000E+00  0.00000000E+00  0.00000000E+00
  0.00000000E+00  0.00000000E+00  0.00000000E+00
  0.00000000E+00  0.00000000E+00  0.00000000E+00
  0.00000000E+00  0.00000000E+00  0.00000000E+00
  0.00000000E+00  0.00000000E+00  0.00000000E+00
  0.00000000E+00  0.00000000E+00  0.00000000E+00
  0.00000000E+00  0.00000000E+00  0.00000000E+00
  0.00000000E+00  0.00000000E+00  0.00000000E+00
  0.00000000E+00  0.00000000E+00  0.00000000E+00
  0.00000000E+00  0.00000000E+00  0.00000000E+00
  0.00000000E+00  0.00000000E+00  0.00000000E+00
  0.00000000E+00  0.00000000E+00  0.00000000E+00
  0.00000000E+00  0.00000000E+00  0.00000000E+00
  0.00000000E+00  0.00000000E+00  0.00000000E+00
  0.00000000E+00  0.00000000E+00  0.00000000E+00
  0.00000000E+00  0.00000000E+00  0.00000000E+00
  0.00000000E+00  0.00000000E+00  0.00000000E+00
  0.00000000E+00  0.00000000E+00  0.00000000E+00
  0.00000000E+00  0.00000000E+00  0.00000000E+00
  0.00000000E+00  0.00000000E+00  0.00000000E+00
  0.00000000E+00  0.00000000E+00  0.00000000E+00
  0.00000000E+00  0.00000000E+00  0.00000000E+00
  0.00000000E+00  0.00000000E+00  0.00000000E+00
  0.00000000E+00  0.00000000E+00  0.00000000E+00
  0.00000000E+00  0.00000000E+00  0.00000000E+00
  0.00000000E+00  0.00000000E+00  0.00000000E+00
  0.00000000E+00  0.00000000E+00  0.00000000E+00
  0.00000000E+00  0.00000000E+00  0.00000000E+00
  0.00000000E+00  0.00000000E+00  0.00000000E+00
  0.00000000E+00  0.00000000E+00  0.00000000E+00
  0.00000000E+00  0.00000000E+00  0.00000000E+00
  0.00000000E+00  0.00000000E+00  0.00000000E+00
  0.00000000E+00  0.00000000E+00  0.00000000E+00
  0.00000000E+00  0.00000000E+00  0.00000000E+00
  0.00000000E+00  0.00000000E+00  0.00000000E+00
  0.00000000E+00  0.00000000E+00  0.00000000E+00
  0.00000000E+00  0.00000000E+00  0.00000000E+00
  0.00000000E+00  0.00000000E+00  0.00000000E+00
  0.00000000E+00  0.00000000E+00  0.00000000E+00
  0.00000000E+00  0.00000000E+00  0.00000000E+00
  0.00000000E+00  0.00000000E+00  0.00000000E+00
  0.00000000E+00  0.00000000E+00  0.00000000E+00
  0.00000000E+00  0.00000000E+00  0.00000000E+00
  0.00000000E+00  0.00000000E+00  0.00000000E+00
  0.00000000E+00  0.00000000E+00  0.00000000E+00
  0.00000000E+00  0.00000000E+00  0.00000000E+00
  0.00000000E+00  0.00000000E+00  0.00000000E+00
  0.00000000E+00  0.00000000E+00  0.00000000E+00
  0.00000000E+00  0.00000000E+00  0.00000000E+00
  0.00000000E+00  0.00000000E+00  0.00000000E+00
  0.00000000E+00  0.00000000E+00  0.00000000E+00
  0.00000000E+00  0.00000000E+00  0.00000000E+00
  0.00000000E+00  0.00000000E+00  0.00000000E+00
  0.00000000E+00  0.00000000E+00  0.00000000E+00
  0.00000000E+00  0.00000000E+00  0.00000000E+00
  0.00000000E+00  0.00000000E+00  0.00000000E+00
  0.00000000E+00  0.00000000E+00  0.00000000E+00
  0.00000000E+00  0.00000000E+00  0.00000000E+00
  0.00000000E+00  0.00000000E+00  0.00000000E+00
  0.00000000E+00  0.00000000E+00  0.00000000E+00
  0.00000000E+00  0.00000000E+00  0.00000000E+00
  0.00000000E+00  0.00000000E+00  0.00000000E+00
  0.00000000E+00  0.00000000E+00  0.00000000E+00
  0.00000000E+00  0.00000000E+00  0.00000000E+00
  0.00000000E+00  0.00000000E+00  0.00000000E+00
  0.00000000E+00  0.00000000E+00  0.00000000E+00
  0.00000000E+00  0.00000000E+00  0.00000000E+00
  0.00000000E+00  0.00000000E+00  0.00000000E+00
  0.00000000E+00  0.00000000E+00  0.00000000E+00
  0.00000000E+00  0.00000000E+00  0.00000000E+00
  0.00000000E+00  0.00000000E+00  0.00000000E+00
  0.00000000E+00  0.00000000E+00  0.00000000E+00
  0.00000000E+00  0.00000000E+00  0.00000000E+00
  0.00000000E+00  0.00000000E+00  0.00000000E+00
  0.00000000E+00  0.00000000E+00  0.00000000E+00
