Generated by VASPKIT code               
   1.00000000000000     
    14.5765924453999993    0.0000000000000000    0.0000000000000000
     7.2882962226999997   12.6236993582999997    0.0000000000000000
     0.0000000000000000    0.0000000000000000   39.1618995667000007
   Pt   O    H 
   135    18    33
Selective dynamics
Direct
  0.1111100019999967  0.0000000000000000  0.0255399999999995   F   F   F
  0.7777766589999970  0.6666666870000029  0.0255399999999995   F   F   F
  0.4444433450000034  0.3333333429999996  0.0255399999999995   F   F   F
  0.9999966620000009  0.2222266639999972  0.0255399999999995   F   F   F
  0.6666633489999967  0.8888933059999999  0.0255399999999995   F   F   F
  0.3333300050000005  0.5555599930000028  0.0255399999999995   F   F   F
  0.8888866899999996  0.4444466530000000  0.0255399999999995   F   F   F
  0.5555533770000025  0.1111133169999974  0.0255399999999995   F   F   F
  0.2222200189999981  0.7777799959999996  0.0255399999999995   F   F   F
  0.3333299760000017  0.8888900279999987  0.0255399999999995   F   F   F
  0.9999966620000009  0.5555567150000016  0.0255399999999995   F   F   F
  0.6666632889999988  0.2222233560000006  0.0255399999999995   F   F   F
  0.2222166509999965  0.1111166700000012  0.0255399999999995   F   F   F
  0.8888832929999992  0.7777833339999987  0.0255399999999995   F   F   F
  0.5555499789999985  0.4444499909999990  0.0255399999999995   F   F   F
  0.1111066559999969  0.3333366809999987  0.0255399999999995   F   F   F
  0.7777733209999980  0.0000033479999999  0.0255399999999995   F   F   F
  0.4444399770000018  0.6666700239999983  0.0255399999999995   F   F   F
  0.5555566549999966  0.7777766589999970  0.0255399999999995   F   F   F
  0.2222233270000018  0.4444433150000009  0.0255399999999995   F   F   F
  0.8888899680000009  0.1111099940000031  0.0255399999999995   F   F   F
  0.4444433450000034  0.0000033179999974  0.0255399999999995   F   F   F
  0.1111100090000008  0.6666699649999970  0.0255399999999995   F   F   F
  0.7777766589999970  0.3333366510000033  0.0255399999999995   F   F   F
  0.3333333429999996  0.2222233270000018  0.0255399999999995   F   F   F
  0.0000000000000000  0.8888899680000009  0.0255399999999995   F   F   F
  0.6666666870000029  0.5555566549999966  0.0255399999999995   F   F   F
  0.0000000000000000  0.0000000000000000  0.0840200040000028   F   F   F
  0.6666666870000029  0.6666666870000029  0.0840200040000028   F   F   F
  0.3333333429999996  0.3333333429999996  0.0840200040000028   F   F   F
  0.8888900279999987  0.2222200040000004  0.0840200040000028   F   F   F
  0.5555567150000016  0.8888866899999996  0.0840200040000028   F   F   F
  0.2222233560000006  0.5555533169999975  0.0840200040000028   F   F   F
  0.7777766589999970  0.4444466830000025  0.0840200040000028   F   F   F
  0.4444433150000009  0.1111133469999999  0.0840200040000028   F   F   F
  0.1111099940000031  0.7777799959999996  0.0840200040000028   F   F   F
  0.2222200040000004  0.8888900279999987  0.0840200040000028   F   F   F
  0.8888866899999996  0.5555567150000016  0.0840200040000028   F   F   F
  0.5555533169999975  0.2222233560000006  0.0840200040000028   F   F   F
  0.1111100019999967  0.1111100019999967  0.0840200040000028   F   F   F
  0.7777766589999970  0.7777766589999970  0.0840200040000028   F   F   F
  0.4444433450000034  0.4444433450000034  0.0840200040000028   F   F   F
  0.9999966620000009  0.3333366809999987  0.0840200040000028   F   F   F
  0.6666633489999967  0.0000033479999999  0.0840200040000028   F   F   F
  0.3333300050000005  0.6666700239999983  0.0840200040000028   F   F   F
  0.4444466830000025  0.7777766589999970  0.0840200040000028   F   F   F
  0.1111133469999999  0.4444433150000009  0.0840200040000028   F   F   F
  0.7777799959999996  0.1111099940000031  0.0840200040000028   F   F   F
  0.3333366809999987  0.9999966620000009  0.0840200040000028   F   F   F
  0.0000033479999999  0.6666633489999967  0.0840200040000028   F   F   F
  0.6666700239999983  0.3333300050000005  0.0840200040000028   F   F   F
  0.2222233410000030  0.2222233410000030  0.0840200040000028   F   F   F
  0.8888900279999987  0.8888900279999987  0.0840200040000028   F   F   F
  0.5555566549999966  0.5555566549999966  0.0840200040000028   F   F   F
  0.9994777563316214  0.1118720675531632  0.1419027105461423   T   T   T
  0.6661411151178752  0.7785346923437622  0.1419036322856052   T   T   T
  0.3328100891830532  0.4452040245043240  0.1419032605484055   T   T   T
  0.8891144464770443  0.3333610910056192  0.1416070427084362   T   T   T
  0.5557783023817097  0.0000296529506402  0.1416083205581762   T   T   T
  0.2224463491689415  0.6666918404749551  0.1416061890594592   T   T   T
  0.7766664231766265  0.5566912058507564  0.1416466945472840   T   T   T
  0.4433288146798132  0.2233650207525248  0.1416475623496052   T   T   T
  0.1099970484560915  0.8900263761597419  0.1416458352685030   T   T   T
  0.2229099460295828  0.0006101592539314  0.1421566432475986   T   T   T
  0.8895849125446238  0.6672714272034922  0.1421566254381510   T   T   T
  0.5562442785333309  0.3339451762716644  0.1421564820907453   T   T   T
  0.1117186614640115  0.2225999596039286  0.1426618420778017   T   T   T
  0.7783889405133253  0.8892650834214118  0.1426619031059041   T   T   T
  0.4450508260116838  0.5559315972204079  0.1426619447860049   T   T   T
  0.0008722779825175  0.4444452420870282  0.1420328556157454   T   T   T
  0.6675353125594059  0.1111176709386358  0.1420331285355082   T   T   T
  0.3341984313412242  0.7777804026734708  0.1420334951402151   T   T   T
  0.4445967504150684  0.8887474946472813  0.1420346726340644   T   T   T
  0.1112755343211868  0.5554064252903140  0.1420338161125575   T   T   T
  0.7779370935353112  0.2220783445543645  0.1420338099966291   T   T   T
  0.3321900277534409  0.1122364719927325  0.1423105226576186   T   T   T
  0.9988649268263219  0.7788940082332221  0.1423106474736081   T   T   T
  0.6655288714760367  0.4455621120961998  0.1423100432082600   T   T   T
  0.2213181902830850  0.3339575784346904  0.1427259519963247   T   T   T
  0.8879895423461573  0.0006230997543012  0.1427247584560828   T   T   T
  0.5546489286578531  0.6672854399853448  0.1427249176216658   T   T   T
  0.1114378866363080  0.0022916411235430  0.1993866972987721   T   T   T
  0.7781018480866559  0.6689567019701956  0.1993870191724955   T   T   T
  0.4447696793562975  0.3356228253707115  0.1993866918163233   T   T   T
  0.0004275089290953  0.2231027368323210  0.1999527519125788   T   T   T
  0.6670919984344050  0.8897678265935177  0.1999534387978727   T   T   T
  0.3337610250598245  0.5564357080273705  0.1999530858627099   T   T   T
  0.8880721599382618  0.4464116005031716  0.1987506309138827   T   T   T
  0.5547391496871958  0.1130764081905513  0.1987509736925883   T   T   T
  0.2214061565414470  0.7797433055472245  0.1987511424888835   T   T   T
  0.3342144424135645  0.8893850561382639  0.2003754734544742   T   T   T
  0.0008821913987068  0.5560506623651295  0.2003753294224569   T   T   T
  0.6675469448441009  0.2227159823341744  0.2003750687138674   T   T   T
  0.2206979750855908  0.1140776295420731  0.2017614563870977   T   T   T
  0.8873617319016203  0.7807421654142798  0.2017621923402670   T   T   T
  0.5540287797931815  0.4474078735481904  0.2017606461368014   T   T   T
  0.1120588339570991  0.3345840582615117  0.2018292385545897   T   T   T
  0.7787237172131668  0.0012482452846661  0.2018287488749954   T   T   T
  0.4453924449204036  0.6679140321192457  0.2018290540658008   T   T   T
  0.5547427997227067  0.7794819109196407  0.2004907778285328   T   T   T
  0.2214107538684691  0.4461488386848673  0.2004924169240602   T   T   T
  0.8880745211850061  0.1128166074295440  0.2004915661347808   T   T   T
  0.4440582270540329  0.0019294937251375  0.1992036911416835   T   T   T
  0.1107270122880828  0.6685943699705433  0.1992043221123734   T   T   T
  0.7773906062066775  0.3352628128548008  0.1992022427126613   T   T   T
  0.3324275065796249  0.2232407896780376  0.2006832871489772   T   T   T
  0.9990938149152018  0.8899074869741325  0.2006833446674907   T   T   T
  0.6657593909606487  0.5565737500833723  0.2006824766823686   T   T   T
  0.0019067274765037  0.0027426662569332  0.2580152177887399   T   T   T
  0.6685773929183644  0.6694050390533479  0.2580159773760938   T   T   T
  0.3352445906974926  0.3360759041539655  0.2580146509850616   T   T   T
  0.8879966881756393  0.2267142242821042  0.2583125099884591   T   T   T
  0.5546630805071880  0.8933806348176953  0.2583137310579276   T   T   T
  0.2213318077972168  0.5600463255344830  0.2583132507699107   T   T   T
  0.7795659484776573  0.4463714332625408  0.2586653341934223   T   T   T
  0.4462357832306766  0.1130393872401870  0.2586649017410804   T   T   T
  0.1129015682359388  0.7797055101170204  0.2586665855811675   T   T   T
  0.2207048952411690  0.8916969576010096  0.2580534960477746   T   T   T
  0.8873758416392183  0.5583609770883466  0.2580530402400835   T   T   T
  0.5540432304764413  0.2250288381028316  0.2580517878079333   T   T   T
  0.1103413649756122  0.1139263496775038  0.2608402266604294   T   T   T
  0.7770115846001798  0.7805882098620024  0.2608402716604492   T   T   T
  0.4436782022604073  0.4472546476646442  0.2608415043213123   T   T   T
  0.9965868313816022  0.3378023000377526  0.2582081633809097   T   T   T
  0.6632526990144221  0.0044709928647685  0.2582097299833304   T   T   T
  0.3299186053604752  0.6711345909360303  0.2582102940032583   T   T   T
  0.4425731219358804  0.7833340051725168  0.2608497995347402   T   T   T
  0.1092414670054135  0.4500008606445073  0.2608508618751423   T   T   T
  0.7759083391682917  0.1166703046567760  0.2608495849258060   T   T   T
  0.3344392173104434  0.0026738875828555  0.2586264384346995   T   T   T
  0.0011112529629473  0.6693372012859961  0.2586283992774064   T   T   T
  0.6677733600049784  0.3360058894687177  0.2586256942073095   T   T   T
  0.2241024347948627  0.2246597922843269  0.2619412384673280   T   T   T
  0.8907718396165696  0.8913254941410450  0.2619420019079106   T   T   T
  0.5574363129707621  0.5579892690578202  0.2619421193833620   T   T   T
  0.2265006647868198  0.8992874469796309  0.3438462413726751   T   T   T
  0.8931672213694345  0.5659560729118095  0.3438451446332970   T   T   T
  0.5598354682000680  0.2326179561178000  0.3438455134362330   T   T   T
  0.4310759920477045  0.0986419591533120  0.3429743799821378   T   T   T
  0.0977404592237441  0.7653100335556740  0.3429751151229948   T   T   T
  0.7644097644213401  0.4319747821913353  0.3429748318373191   T   T   T
  0.4479854796429417  0.7709170582360801  0.3184329861602625   T   T   T
  0.1146497056971037  0.4375832996681171  0.3184316589711105   T   T   T
  0.7813168785718304  0.1042494590648446  0.3184306942104617   T   T   T
  0.8841093114521251  0.2146636426651078  0.3442608982853028   T   T   T
  0.5507783742758605  0.8813311486830963  0.3442606303050498   T   T   T
  0.2174428070930507  0.5479970974595713  0.3442616974343669   T   T   T
  0.2233796114485669  0.2325781235371172  0.3154834872728752   T   T   T
  0.8900427925755846  0.8992452659785610  0.3154841647531328   T   T   T
  0.5567111045875947  0.5659128373979120  0.3154849706265512   T   T   T
  0.1052017921175891  0.1140862285485302  0.3217402482531637   T   T   T
  0.7718678391158277  0.7807529244203607  0.3217394498272712   T   T   T
  0.4385360997487907  0.4474160130944864  0.3217414829346418   T   T   T
  0.2953881519672151  0.8582928647731881  0.3319709416672585   T   T   T
  0.9620556419419810  0.5249584264976280  0.3319706862354465   T   T   T
  0.6287235178930055  0.1916246815057277  0.3319703440741609   T   T   T
  0.5068763000116804  0.9600077376647552  0.3399297053598061   T   T   T
  0.1735434584868438  0.6266733799985258  0.3399304122135340   T   T   T
  0.8402100770689286  0.2933402265635069  0.3399300024832980   T   T   T
  0.1810782098841741  0.1996333488665181  0.3219448030731400   T   T   T
  0.8477414463773250  0.8662996324161233  0.3219446061843784   T   T   T
  0.5144137675722232  0.5329636747845834  0.3219463979440822   T   T   T
  0.1600025530779523  0.3550317823162302  0.3203074060332246   T   T   T
  0.8266674997513012  0.0216976017113505  0.3203068951135377   T   T   T
  0.4933394575303386  0.6883646331319487  0.3203083896068876   T   T   T
  0.4901952292670576  0.8035004489416404  0.3263320262718955   T   T   T
  0.1568588790501668  0.4701658022327581  0.3263321369686282   T   T   T
  0.8235256406272077  0.1368319122883442  0.3263312018796678   T   T   T
  0.0292305870067148  0.1449444982161287  0.3277875600040344   T   T   T
  0.6958970796546873  0.8116112975336406  0.3277869869969530   T   T   T
  0.3625652346720427  0.4782742646019884  0.3277883944195216   T   T   T
  0.1434157447778777  0.0379409611837847  0.3285014989451492   T   T   T
  0.8100816599307002  0.7046077765291684  0.3285002534669788   T   T   T
  0.4767494353384032  0.3712708198814614  0.3285021319215930   T   T   T
  0.8030177772500700  0.4692571668622680  0.3377125485207697   T   T   T
  0.4696850289451346  0.1359235490873753  0.3377123163026491   T   T   T
  0.1363495947673733  0.8025912039283597  0.3377126815575572   T   T   T
  0.3598942279146858  0.1423004494800017  0.3322789402779429   T   T   T
  0.0265595081666038  0.8089673636602830  0.3322789733776010   T   T   T
  0.6932276628850853  0.4756332956331410  0.3322796127989748   T   T   T
  0.2451335552510410  0.8958027899998695  0.3678871736627894   T   T   T
  0.9117964654774252  0.5624721404124323  0.3678863156884145   T   T   T
  0.5784667583864053  0.2291348803386607  0.3678863674765275   T   T   T
  0.8869063487816594  0.2093279180247932  0.3690874870606287   T   T   T
  0.5535761182301764  0.8759949273184879  0.3690871980437170   T   T   T
  0.2202393479342800  0.5426627075862317  0.3690882795173059   T   T   T
 
  0.00000000E+00  0.00000000E+00  0.00000000E+00
  0.00000000E+00  0.00000000E+00  0.00000000E+00
  0.00000000E+00  0.00000000E+00  0.00000000E+00
  0.00000000E+00  0.00000000E+00  0.00000000E+00
  0.00000000E+00  0.00000000E+00  0.00000000E+00
  0.00000000E+00  0.00000000E+00  0.00000000E+00
  0.00000000E+00  0.00000000E+00  0.00000000E+00
  0.00000000E+00  0.00000000E+00  0.00000000E+00
  0.00000000E+00  0.00000000E+00  0.00000000E+00
  0.00000000E+00  0.00000000E+00  0.00000000E+00
  0.00000000E+00  0.00000000E+00  0.00000000E+00
  0.00000000E+00  0.00000000E+00  0.00000000E+00
  0.00000000E+00  0.00000000E+00  0.00000000E+00
  0.00000000E+00  0.00000000E+00  0.00000000E+00
  0.00000000E+00  0.00000000E+00  0.00000000E+00
  0.00000000E+00  0.00000000E+00  0.00000000E+00
  0.00000000E+00  0.00000000E+00  0.00000000E+00
  0.00000000E+00  0.00000000E+00  0.00000000E+00
  0.00000000E+00  0.00000000E+00  0.00000000E+00
  0.00000000E+00  0.00000000E+00  0.00000000E+00
  0.00000000E+00  0.00000000E+00  0.00000000E+00
  0.00000000E+00  0.00000000E+00  0.00000000E+00
  0.00000000E+00  0.00000000E+00  0.00000000E+00
  0.00000000E+00  0.00000000E+00  0.00000000E+00
  0.00000000E+00  0.00000000E+00  0.00000000E+00
  0.00000000E+00  0.00000000E+00  0.00000000E+00
  0.00000000E+00  0.00000000E+00  0.00000000E+00
  0.00000000E+00  0.00000000E+00  0.00000000E+00
  0.00000000E+00  0.00000000E+00  0.00000000E+00
  0.00000000E+00  0.00000000E+00  0.00000000E+00
  0.00000000E+00  0.00000000E+00  0.00000000E+00
  0.00000000E+00  0.00000000E+00  0.00000000E+00
  0.00000000E+00  0.00000000E+00  0.00000000E+00
  0.00000000E+00  0.00000000E+00  0.00000000E+00
  0.00000000E+00  0.00000000E+00  0.00000000E+00
  0.00000000E+00  0.00000000E+00  0.00000000E+00
  0.00000000E+00  0.00000000E+00  0.00000000E+00
  0.00000000E+00  0.00000000E+00  0.00000000E+00
  0.00000000E+00  0.00000000E+00  0.00000000E+00
  0.00000000E+00  0.00000000E+00  0.00000000E+00
  0.00000000E+00  0.00000000E+00  0.00000000E+00
  0.00000000E+00  0.00000000E+00  0.00000000E+00
  0.00000000E+00  0.00000000E+00  0.00000000E+00
  0.00000000E+00  0.00000000E+00  0.00000000E+00
  0.00000000E+00  0.00000000E+00  0.00000000E+00
  0.00000000E+00  0.00000000E+00  0.00000000E+00
  0.00000000E+00  0.00000000E+00  0.00000000E+00
  0.00000000E+00  0.00000000E+00  0.00000000E+00
  0.00000000E+00  0.00000000E+00  0.00000000E+00
  0.00000000E+00  0.00000000E+00  0.00000000E+00
  0.00000000E+00  0.00000000E+00  0.00000000E+00
  0.00000000E+00  0.00000000E+00  0.00000000E+00
  0.00000000E+00  0.00000000E+00  0.00000000E+00
  0.00000000E+00  0.00000000E+00  0.00000000E+00
  0.00000000E+00  0.00000000E+00  0.00000000E+00
  0.00000000E+00  0.00000000E+00  0.00000000E+00
  0.00000000E+00  0.00000000E+00  0.00000000E+00
  0.00000000E+00  0.00000000E+00  0.00000000E+00
  0.00000000E+00  0.00000000E+00  0.00000000E+00
  0.00000000E+00  0.00000000E+00  0.00000000E+00
  0.00000000E+00  0.00000000E+00  0.00000000E+00
  0.00000000E+00  0.00000000E+00  0.00000000E+00
  0.00000000E+00  0.00000000E+00  0.00000000E+00
  0.00000000E+00  0.00000000E+00  0.00000000E+00
  0.00000000E+00  0.00000000E+00  0.00000000E+00
  0.00000000E+00  0.00000000E+00  0.00000000E+00
  0.00000000E+00  0.00000000E+00  0.00000000E+00
  0.00000000E+00  0.00000000E+00  0.00000000E+00
  0.00000000E+00  0.00000000E+00  0.00000000E+00
  0.00000000E+00  0.00000000E+00  0.00000000E+00
  0.00000000E+00  0.00000000E+00  0.00000000E+00
  0.00000000E+00  0.00000000E+00  0.00000000E+00
  0.00000000E+00  0.00000000E+00  0.00000000E+00
  0.00000000E+00  0.00000000E+00  0.00000000E+00
  0.00000000E+00  0.00000000E+00  0.00000000E+00
  0.00000000E+00  0.00000000E+00  0.00000000E+00
  0.00000000E+00  0.00000000E+00  0.00000000E+00
  0.00000000E+00  0.00000000E+00  0.00000000E+00
  0.00000000E+00  0.00000000E+00  0.00000000E+00
  0.00000000E+00  0.00000000E+00  0.00000000E+00
  0.00000000E+00  0.00000000E+00  0.00000000E+00
  0.00000000E+00  0.00000000E+00  0.00000000E+00
  0.00000000E+00  0.00000000E+00  0.00000000E+00
  0.00000000E+00  0.00000000E+00  0.00000000E+00
  0.00000000E+00  0.00000000E+00  0.00000000E+00
  0.00000000E+00  0.00000000E+00  0.00000000E+00
  0.00000000E+00  0.00000000E+00  0.00000000E+00
  0.00000000E+00  0.00000000E+00  0.00000000E+00
  0.00000000E+00  0.00000000E+00  0.00000000E+00
  0.00000000E+00  0.00000000E+00  0.00000000E+00
  0.00000000E+00  0.00000000E+00  0.00000000E+00
  0.00000000E+00  0.00000000E+00  0.00000000E+00
  0.00000000E+00  0.00000000E+00  0.00000000E+00
  0.00000000E+00  0.00000000E+00  0.00000000E+00
  0.00000000E+00  0.00000000E+00  0.00000000E+00
  0.00000000E+00  0.00000000E+00  0.00000000E+00
  0.00000000E+00  0.00000000E+00  0.00000000E+00
  0.00000000E+00  0.00000000E+00  0.00000000E+00
  0.00000000E+00  0.00000000E+00  0.00000000E+00
  0.00000000E+00  0.00000000E+00  0.00000000E+00
  0.00000000E+00  0.00000000E+00  0.00000000E+00
  0.00000000E+00  0.00000000E+00  0.00000000E+00
  0.00000000E+00  0.00000000E+00  0.00000000E+00
  0.00000000E+00  0.00000000E+00  0.00000000E+00
  0.00000000E+00  0.00000000E+00  0.00000000E+00
  0.00000000E+00  0.00000000E+00  0.00000000E+00
  0.00000000E+00  0.00000000E+00  0.00000000E+00
  0.00000000E+00  0.00000000E+00  0.00000000E+00
  0.00000000E+00  0.00000000E+00  0.00000000E+00
  0.00000000E+00  0.00000000E+00  0.00000000E+00
  0.00000000E+00  0.00000000E+00  0.00000000E+00
  0.00000000E+00  0.00000000E+00  0.00000000E+00
  0.00000000E+00  0.00000000E+00  0.00000000E+00
  0.00000000E+00  0.00000000E+00  0.00000000E+00
  0.00000000E+00  0.00000000E+00  0.00000000E+00
  0.00000000E+00  0.00000000E+00  0.00000000E+00
  0.00000000E+00  0.00000000E+00  0.00000000E+00
  0.00000000E+00  0.00000000E+00  0.00000000E+00
  0.00000000E+00  0.00000000E+00  0.00000000E+00
  0.00000000E+00  0.00000000E+00  0.00000000E+00
  0.00000000E+00  0.00000000E+00  0.00000000E+00
  0.00000000E+00  0.00000000E+00  0.00000000E+00
  0.00000000E+00  0.00000000E+00  0.00000000E+00
  0.00000000E+00  0.00000000E+00  0.00000000E+00
  0.00000000E+00  0.00000000E+00  0.00000000E+00
  0.00000000E+00  0.00000000E+00  0.00000000E+00
  0.00000000E+00  0.00000000E+00  0.00000000E+00
  0.00000000E+00  0.00000000E+00  0.00000000E+00
  0.00000000E+00  0.00000000E+00  0.00000000E+00
  0.00000000E+00  0.00000000E+00  0.00000000E+00
  0.00000000E+00  0.00000000E+00  0.00000000E+00
  0.00000000E+00  0.00000000E+00  0.00000000E+00
  0.00000000E+00  0.00000000E+00  0.00000000E+00
  0.00000000E+00  0.00000000E+00  0.00000000E+00
  0.00000000E+00  0.00000000E+00  0.00000000E+00
  0.00000000E+00  0.00000000E+00  0.00000000E+00
  0.00000000E+00  0.00000000E+00  0.00000000E+00
  0.00000000E+00  0.00000000E+00  0.00000000E+00
  0.00000000E+00  0.00000000E+00  0.00000000E+00
  0.00000000E+00  0.00000000E+00  0.00000000E+00
  0.00000000E+00  0.00000000E+00  0.00000000E+00
  0.00000000E+00  0.00000000E+00  0.00000000E+00
  0.00000000E+00  0.00000000E+00  0.00000000E+00
  0.00000000E+00  0.00000000E+00  0.00000000E+00
  0.00000000E+00  0.00000000E+00  0.00000000E+00
  0.00000000E+00  0.00000000E+00  0.00000000E+00
  0.00000000E+00  0.00000000E+00  0.00000000E+00
  0.00000000E+00  0.00000000E+00  0.00000000E+00
  0.00000000E+00  0.00000000E+00  0.00000000E+00
  0.00000000E+00  0.00000000E+00  0.00000000E+00
  0.00000000E+00  0.00000000E+00  0.00000000E+00
  0.00000000E+00  0.00000000E+00  0.00000000E+00
  0.00000000E+00  0.00000000E+00  0.00000000E+00
  0.00000000E+00  0.00000000E+00  0.00000000E+00
  0.00000000E+00  0.00000000E+00  0.00000000E+00
  0.00000000E+00  0.00000000E+00  0.00000000E+00
  0.00000000E+00  0.00000000E+00  0.00000000E+00
  0.00000000E+00  0.00000000E+00  0.00000000E+00
  0.00000000E+00  0.00000000E+00  0.00000000E+00
  0.00000000E+00  0.00000000E+00  0.00000000E+00
  0.00000000E+00  0.00000000E+00  0.00000000E+00
  0.00000000E+00  0.00000000E+00  0.00000000E+00
  0.00000000E+00  0.00000000E+00  0.00000000E+00
  0.00000000E+00  0.00000000E+00  0.00000000E+00
  0.00000000E+00  0.00000000E+00  0.00000000E+00
  0.00000000E+00  0.00000000E+00  0.00000000E+00
  0.00000000E+00  0.00000000E+00  0.00000000E+00
  0.00000000E+00  0.00000000E+00  0.00000000E+00
  0.00000000E+00  0.00000000E+00  0.00000000E+00
  0.00000000E+00  0.00000000E+00  0.00000000E+00
  0.00000000E+00  0.00000000E+00  0.00000000E+00
  0.00000000E+00  0.00000000E+00  0.00000000E+00
  0.00000000E+00  0.00000000E+00  0.00000000E+00
  0.00000000E+00  0.00000000E+00  0.00000000E+00
  0.00000000E+00  0.00000000E+00  0.00000000E+00
  0.00000000E+00  0.00000000E+00  0.00000000E+00
  0.00000000E+00  0.00000000E+00  0.00000000E+00
  0.00000000E+00  0.00000000E+00  0.00000000E+00
  0.00000000E+00  0.00000000E+00  0.00000000E+00
  0.00000000E+00  0.00000000E+00  0.00000000E+00
  0.00000000E+00  0.00000000E+00  0.00000000E+00
  0.00000000E+00  0.00000000E+00  0.00000000E+00
  0.00000000E+00  0.00000000E+00  0.00000000E+00
  0.00000000E+00  0.00000000E+00  0.00000000E+00
  0.00000000E+00  0.00000000E+00  0.00000000E+00
  0.00000000E+00  0.00000000E+00  0.00000000E+00
