Generated by VASPKIT code               
   1.00000000000000     
    14.5765924453999993    0.0000000000000000    0.0000000000000000
     7.2882962226999997   12.6236993582999997    0.0000000000000000
     0.0000000000000000    0.0000000000000000   39.1618995667000007
   Pt   O    H 
   135    18    21
Selective dynamics
Direct
  0.1111100019999967  0.0000000000000000  0.0255399999999995   F   F   F
  0.7777766589999970  0.6666666870000029  0.0255399999999995   F   F   F
  0.4444433450000034  0.3333333429999996  0.0255399999999995   F   F   F
  0.9999966620000009  0.2222266639999972  0.0255399999999995   F   F   F
  0.6666633489999967  0.8888933059999999  0.0255399999999995   F   F   F
  0.3333300050000005  0.5555599930000028  0.0255399999999995   F   F   F
  0.8888866899999996  0.4444466530000000  0.0255399999999995   F   F   F
  0.5555533770000025  0.1111133169999974  0.0255399999999995   F   F   F
  0.2222200189999981  0.7777799959999996  0.0255399999999995   F   F   F
  0.3333299760000017  0.8888900279999987  0.0255399999999995   F   F   F
  0.9999966620000009  0.5555567150000016  0.0255399999999995   F   F   F
  0.6666632889999988  0.2222233560000006  0.0255399999999995   F   F   F
  0.2222166509999965  0.1111166700000012  0.0255399999999995   F   F   F
  0.8888832929999992  0.7777833339999987  0.0255399999999995   F   F   F
  0.5555499789999985  0.4444499909999990  0.0255399999999995   F   F   F
  0.1111066559999969  0.3333366809999987  0.0255399999999995   F   F   F
  0.7777733209999980  0.0000033479999999  0.0255399999999995   F   F   F
  0.4444399770000018  0.6666700239999983  0.0255399999999995   F   F   F
  0.5555566549999966  0.7777766589999970  0.0255399999999995   F   F   F
  0.2222233270000018  0.4444433150000009  0.0255399999999995   F   F   F
  0.8888899680000009  0.1111099940000031  0.0255399999999995   F   F   F
  0.4444433450000034  0.0000033179999974  0.0255399999999995   F   F   F
  0.1111100090000008  0.6666699649999970  0.0255399999999995   F   F   F
  0.7777766589999970  0.3333366510000033  0.0255399999999995   F   F   F
  0.3333333429999996  0.2222233270000018  0.0255399999999995   F   F   F
  0.0000000000000000  0.8888899680000009  0.0255399999999995   F   F   F
  0.6666666870000029  0.5555566549999966  0.0255399999999995   F   F   F
  0.0000000000000000  0.0000000000000000  0.0840200040000028   F   F   F
  0.6666666870000029  0.6666666870000029  0.0840200040000028   F   F   F
  0.3333333429999996  0.3333333429999996  0.0840200040000028   F   F   F
  0.8888900279999987  0.2222200040000004  0.0840200040000028   F   F   F
  0.5555567150000016  0.8888866899999996  0.0840200040000028   F   F   F
  0.2222233560000006  0.5555533169999975  0.0840200040000028   F   F   F
  0.7777766589999970  0.4444466830000025  0.0840200040000028   F   F   F
  0.4444433150000009  0.1111133469999999  0.0840200040000028   F   F   F
  0.1111099940000031  0.7777799959999996  0.0840200040000028   F   F   F
  0.2222200040000004  0.8888900279999987  0.0840200040000028   F   F   F
  0.8888866899999996  0.5555567150000016  0.0840200040000028   F   F   F
  0.5555533169999975  0.2222233560000006  0.0840200040000028   F   F   F
  0.1111100019999967  0.1111100019999967  0.0840200040000028   F   F   F
  0.7777766589999970  0.7777766589999970  0.0840200040000028   F   F   F
  0.4444433450000034  0.4444433450000034  0.0840200040000028   F   F   F
  0.9999966620000009  0.3333366809999987  0.0840200040000028   F   F   F
  0.6666633489999967  0.0000033479999999  0.0840200040000028   F   F   F
  0.3333300050000005  0.6666700239999983  0.0840200040000028   F   F   F
  0.4444466830000025  0.7777766589999970  0.0840200040000028   F   F   F
  0.1111133469999999  0.4444433150000009  0.0840200040000028   F   F   F
  0.7777799959999996  0.1111099940000031  0.0840200040000028   F   F   F
  0.3333366809999987  0.9999966620000009  0.0840200040000028   F   F   F
  0.0000033479999999  0.6666633489999967  0.0840200040000028   F   F   F
  0.6666700239999983  0.3333300050000005  0.0840200040000028   F   F   F
  0.2222233410000030  0.2222233410000030  0.0840200040000028   F   F   F
  0.8888900279999987  0.8888900279999987  0.0840200040000028   F   F   F
  0.5555566549999966  0.5555566549999966  0.0840200040000028   F   F   F
  0.0002879211478509  0.1109138103108095  0.1422477826694376   T   T   T
  0.6669545631478463  0.7775804603108060  0.1422477826694376   T   T   T
  0.3336212501478494  0.4442471463108051  0.1422477826694376   T   T   T
  0.8882451314648934  0.3340225843112099  0.1421748301932772   T   T   T
  0.5549118184648891  0.0006892513112111  0.1421748301932772   T   T   T
  0.2215784594648884  0.6673558973112141  0.1421748301932772   T   T   T
  0.7771840261131363  0.5562668660483657  0.1427025262719199   T   T   T
  0.4438506821131397  0.2229335370483671  0.1427025262719199   T   T   T
  0.1105173621131387  0.8896001790483629  0.1427025262719199   T   T   T
  0.2221051980512414 -0.0002405984361015  0.1424067854906894   T   T   T
  0.8887718550512420  0.6664260885638942  0.1424067854906894   T   T   T
  0.5554385410512412  0.3330927445638981  0.1424067854906894   T   T   T
  0.1113293400501934  0.2220046571174789  0.1421194507635457   T   T   T
  0.7779960040501906  0.8886712991174743  0.1421194507635457   T   T   T
  0.4446626610501913  0.5553379851174736  0.1421194507635457   T   T   T
 -0.0000351730321906  0.4449102304473138  0.1421780930408685   T   T   T
  0.6666314739678088  0.1115768944473184  0.1421780930408685   T   T   T
  0.3332981599678082  0.7782435434473178  0.1421780930408685   T   T   T
  0.4448803928681178  0.8886377313144629  0.1421416512801272   T   T   T
  0.1115470568681224  0.5553044173144621  0.1421416512801272   T   T   T
  0.7782137058681222  0.2219710593144648  0.1421416512801272   T   T   T
  0.3332380140692221  0.1116925477003958  0.1424961861447921   T   T   T
 -0.0000953199307805  0.7783592337003952  0.1424961861447921   T   T   T
  0.6665713270692194  0.4450258907003954  0.1424961861447921   T   T   T
  0.2226365723318491  0.3329301502101527  0.1424274869011176   T   T   T
  0.8893032583318489 -0.0004031627898446  0.1424274869011176   T   T   T
  0.5559698853318539  0.6662634642101537  0.1424274869011176   T   T   T
  0.1131567676227288  0.0003413691816287  0.2014355636798261   T   T   T
  0.7798234326227300  0.6670080061816276  0.2014355636798261   T   T   T
  0.4464900886227336  0.3336746921816268  0.2014355636798261   T   T   T
  0.9993045722587094  0.2210103292123587  0.1999224912885853   T   T   T
  0.6659712592587052  0.8876770012123567  0.1999224912885853   T   T   T
  0.3326379162587053  0.5543436872123559  0.1999224912885853   T   T   T
  0.8861555644299489  0.4472529313462058  0.2003413237546875   T   T   T
  0.5528222514299518  0.1139195953462103  0.2003413237546875   T   T   T
  0.2194888934299478  0.7805862453462062  0.2003413237546875   T   T   T
  0.3334606580385357  0.8874930201195983  0.2005656027013059   T   T   T
  0.0001273250385367  0.5541597071195941  0.2005656027013059   T   T   T
  0.6667939720385362  0.2208263491195966  0.2005656027013059   T   T   T
  0.2201522230071914  0.1130822156221198  0.2005310674940437   T   T   T
  0.8868189100071937  0.7797489016221193  0.2005310674940437   T   T   T
  0.5534855360071951  0.4464155586221195  0.2005310674940437   T   T   T
  0.1125884245743500  0.3338840109866733  0.2002214706937158   T   T   T
  0.7792550885743470  0.0005506769866710  0.2002214706937158   T   T   T
  0.4459217455743479  0.6672173539866727  0.2002214706937158   T   T   T
  0.5541600624442105  0.7792825468091029  0.2004388514563505   T   T   T
  0.2208267344442082  0.4459492038091029  0.2004388514563505   T   T   T
  0.8874933764442112  0.1126158828090981  0.2004388514563505   T   T   T
  0.4455622055364691  0.0001033135896128  0.2005921049314443   T   T   T
  0.1122288695364737  0.6667699805896141  0.2005921049314443   T   T   T
  0.7788955195364701  0.3334366375896143  0.2005921049314443   T   T   T
  0.3328477155267852  0.2197071719322037  0.2017825148162672   T   T   T
  0.9995144025267881  0.8863738589322064  0.2017825148162672   T   T   T
  0.6661810295267860  0.5530404859322043  0.2017825148162672   T   T   T
  0.6655462454407014  0.6668903648035251  0.2576360337466552   T   T   T
  0.3322129014407054  0.3335570218035255  0.2576360337466552   T   T   T
  0.9988795584407056  0.0002236988035276  0.2576360337466552   T   T   T
  0.5548818056120562  0.8894508832447908  0.2598177315145619   T   T   T
  0.2215484776120615  0.5561175692447901  0.2598177315145619   T   T   T
  0.8882151196120570  0.2227842112447928  0.2598177315145619   T   T   T
  0.4419268631025220  0.1125246419599927  0.2610478107153493   T   T   T
  0.1085935271025195  0.7791913289599959  0.2610478107153493   T   T   T
  0.7752601761025194  0.4458579859599960  0.2610478107153493   T   T   T
  0.2213143875454505  0.8889772621226751  0.2607866307332969   T   T   T
  0.8879810745454463  0.5556439481226815  0.2607866307332969   T   T   T
  0.5546477015454442  0.2223105901226772  0.2607866307332969   T   T   T
  0.1097832557002606  0.1104761669438284  0.2601984716090589   T   T   T
  0.7764499427002566  0.7771428539438315  0.2601984716090589   T   T   T
  0.4431165997002568  0.4438095109438317  0.2601984716090589   T   T   T
  0.9985421865082429  0.3345640463742302  0.2560390050665600   T   T   T
  0.6652088735082387  0.0012307133742314  0.2560390050665600   T   T   T
  0.3318755295082426  0.6678973903742331  0.2560390050665600   T   T   T
  0.4435412679102706  0.7800505934298579  0.2600596604580983   T   T   T
  0.1102079319102750  0.4467172494298615  0.2600596604580983   T   T   T
  0.7768745819102716  0.1133839284298638  0.2600596604580983   T   T   T
  0.3313477100790832  0.0014621286922340  0.2572972024283346   T   T   T
  0.9980143970790860  0.6681287756922335  0.2572972024283346   T   T   T
  0.6646810230790803  0.3347954626922364  0.2572972024283346   T   T   T
  0.2205098808632066  0.2243103400714929  0.2608372288289377   T   T   T
  0.8871765228632097  0.8909769820714959  0.2608372288289377   T   T   T
  0.5538432098632055  0.5576436680714951  0.2608372288289377   T   T   T
  0.8963051375451262  0.5419513899078623  0.3114946552452935   T   T   T
  0.5629718245451291  0.2086180619078599  0.3114946552452935   T   T   T
  0.2296384665451318  0.8752847039078631  0.3114946552452935   T   T   T
  0.7923138438296399  0.4326174024312185  0.3116601922978168   T   T   T
  0.4589805008296403  0.0992840674312195  0.3116601922978168   T   T   T
  0.1256471798296354  0.7659507164312190  0.3116601922978168   T   T   T
  0.4460087648251350  0.7804786700567814  0.3119432110925990   T   T   T
  0.1126754288251323  0.4471453260567778  0.3119432110925990   T   T   T
  0.7793421078251349  0.1138120050567800  0.3119432110925990   T   T   T
  0.8923919703230215  0.2218608292388347  0.3120064609452438   T   T   T
  0.5590586563230279  0.8885275012388326  0.3120064609452438   T   T   T
  0.2257252983230233  0.5551941872388390  0.3120064609452438   T   T   T
  0.1959953209087462  0.2332388407940939  0.3116379778657875   T   T   T
  0.8626619629087493  0.8999054827940969  0.3116379778657875   T   T   T
  0.5293286499087522  0.5665721697940997  0.3116379778657875   T   T   T
  0.0982561264101807  0.1309326387753911  0.3132756015915967   T   T   T
  0.7649227904101779  0.7975993097753856  0.3132756015915967   T   T   T
  0.4315894474101786  0.4642659667753859  0.3132756015915967   T   T   T
  0.9729775673002456  0.5122864967477057  0.3170947085717123   T   T   T
  0.6396442533002449  0.1789531677477001  0.3170947085717123   T   T   T
  0.3063109103002452  0.8456198097477028  0.3170947085717123   T   T   T
  0.8542883702563715  0.3003419734776658  0.3172714326054294   T   T   T
  0.5209550562563707  0.9670086594776721  0.3172714326054294   T   T   T
  0.1876216982563733  0.6336752864776700  0.3172714326054294   T   T   T
  0.1309983533409642  0.1796113612062135  0.3171348444992414   T   T   T
  0.7976650393409638  0.8462780182062140  0.3171348444992414   T   T   T
  0.4643316963409639  0.5129447042062132  0.3171348444992414   T   T   T
  0.1688253341211657  0.3094223459519601  0.3174921777458030   T   T   T
  0.8354920051211672  0.9760890019519638  0.3174921777458030   T   T   T
  0.5021586921211629  0.6427556889519596  0.3174921777458030   T   T   T
  0.4846130396676084  0.8188130746001203  0.3178922380543622   T   T   T
  0.1512797116676137  0.4854797316001211  0.3178922380543622   T   T   T
  0.8179463836676119  0.1521464036001189  0.3178922380543622   T   T   T
  0.0177006925234465  0.1711506671402453  0.3173689484902357   T   T   T
  0.6843673875234428  0.8378173241402456  0.3173689484902357   T   T   T
  0.3510340145234478  0.5044840101402448  0.3173689484902357   T   T   T
  0.8324584529284195  0.4702301779239490  0.3172064850127688   T   T   T
  0.4991251089284165  0.1368968499239470  0.3172064850127688   T   T   T
  0.1657917809284148  0.8035634909239534  0.3172064850127688   T   T   T
 
  0.00000000E+00  0.00000000E+00  0.00000000E+00
  0.00000000E+00  0.00000000E+00  0.00000000E+00
  0.00000000E+00  0.00000000E+00  0.00000000E+00
  0.00000000E+00  0.00000000E+00  0.00000000E+00
  0.00000000E+00  0.00000000E+00  0.00000000E+00
  0.00000000E+00  0.00000000E+00  0.00000000E+00
  0.00000000E+00  0.00000000E+00  0.00000000E+00
  0.00000000E+00  0.00000000E+00  0.00000000E+00
  0.00000000E+00  0.00000000E+00  0.00000000E+00
  0.00000000E+00  0.00000000E+00  0.00000000E+00
  0.00000000E+00  0.00000000E+00  0.00000000E+00
  0.00000000E+00  0.00000000E+00  0.00000000E+00
  0.00000000E+00  0.00000000E+00  0.00000000E+00
  0.00000000E+00  0.00000000E+00  0.00000000E+00
  0.00000000E+00  0.00000000E+00  0.00000000E+00
  0.00000000E+00  0.00000000E+00  0.00000000E+00
  0.00000000E+00  0.00000000E+00  0.00000000E+00
  0.00000000E+00  0.00000000E+00  0.00000000E+00
  0.00000000E+00  0.00000000E+00  0.00000000E+00
  0.00000000E+00  0.00000000E+00  0.00000000E+00
  0.00000000E+00  0.00000000E+00  0.00000000E+00
  0.00000000E+00  0.00000000E+00  0.00000000E+00
  0.00000000E+00  0.00000000E+00  0.00000000E+00
  0.00000000E+00  0.00000000E+00  0.00000000E+00
  0.00000000E+00  0.00000000E+00  0.00000000E+00
  0.00000000E+00  0.00000000E+00  0.00000000E+00
  0.00000000E+00  0.00000000E+00  0.00000000E+00
  0.00000000E+00  0.00000000E+00  0.00000000E+00
  0.00000000E+00  0.00000000E+00  0.00000000E+00
  0.00000000E+00  0.00000000E+00  0.00000000E+00
  0.00000000E+00  0.00000000E+00  0.00000000E+00
  0.00000000E+00  0.00000000E+00  0.00000000E+00
  0.00000000E+00  0.00000000E+00  0.00000000E+00
  0.00000000E+00  0.00000000E+00  0.00000000E+00
  0.00000000E+00  0.00000000E+00  0.00000000E+00
  0.00000000E+00  0.00000000E+00  0.00000000E+00
  0.00000000E+00  0.00000000E+00  0.00000000E+00
  0.00000000E+00  0.00000000E+00  0.00000000E+00
  0.00000000E+00  0.00000000E+00  0.00000000E+00
  0.00000000E+00  0.00000000E+00  0.00000000E+00
  0.00000000E+00  0.00000000E+00  0.00000000E+00
  0.00000000E+00  0.00000000E+00  0.00000000E+00
  0.00000000E+00  0.00000000E+00  0.00000000E+00
  0.00000000E+00  0.00000000E+00  0.00000000E+00
  0.00000000E+00  0.00000000E+00  0.00000000E+00
  0.00000000E+00  0.00000000E+00  0.00000000E+00
  0.00000000E+00  0.00000000E+00  0.00000000E+00
  0.00000000E+00  0.00000000E+00  0.00000000E+00
  0.00000000E+00  0.00000000E+00  0.00000000E+00
  0.00000000E+00  0.00000000E+00  0.00000000E+00
  0.00000000E+00  0.00000000E+00  0.00000000E+00
  0.00000000E+00  0.00000000E+00  0.00000000E+00
  0.00000000E+00  0.00000000E+00  0.00000000E+00
  0.00000000E+00  0.00000000E+00  0.00000000E+00
  0.00000000E+00  0.00000000E+00  0.00000000E+00
  0.00000000E+00  0.00000000E+00  0.00000000E+00
  0.00000000E+00  0.00000000E+00  0.00000000E+00
  0.00000000E+00  0.00000000E+00  0.00000000E+00
  0.00000000E+00  0.00000000E+00  0.00000000E+00
  0.00000000E+00  0.00000000E+00  0.00000000E+00
  0.00000000E+00  0.00000000E+00  0.00000000E+00
  0.00000000E+00  0.00000000E+00  0.00000000E+00
  0.00000000E+00  0.00000000E+00  0.00000000E+00
  0.00000000E+00  0.00000000E+00  0.00000000E+00
  0.00000000E+00  0.00000000E+00  0.00000000E+00
  0.00000000E+00  0.00000000E+00  0.00000000E+00
  0.00000000E+00  0.00000000E+00  0.00000000E+00
  0.00000000E+00  0.00000000E+00  0.00000000E+00
  0.00000000E+00  0.00000000E+00  0.00000000E+00
  0.00000000E+00  0.00000000E+00  0.00000000E+00
  0.00000000E+00  0.00000000E+00  0.00000000E+00
  0.00000000E+00  0.00000000E+00  0.00000000E+00
  0.00000000E+00  0.00000000E+00  0.00000000E+00
  0.00000000E+00  0.00000000E+00  0.00000000E+00
  0.00000000E+00  0.00000000E+00  0.00000000E+00
  0.00000000E+00  0.00000000E+00  0.00000000E+00
  0.00000000E+00  0.00000000E+00  0.00000000E+00
  0.00000000E+00  0.00000000E+00  0.00000000E+00
  0.00000000E+00  0.00000000E+00  0.00000000E+00
  0.00000000E+00  0.00000000E+00  0.00000000E+00
  0.00000000E+00  0.00000000E+00  0.00000000E+00
  0.00000000E+00  0.00000000E+00  0.00000000E+00
  0.00000000E+00  0.00000000E+00  0.00000000E+00
  0.00000000E+00  0.00000000E+00  0.00000000E+00
  0.00000000E+00  0.00000000E+00  0.00000000E+00
  0.00000000E+00  0.00000000E+00  0.00000000E+00
  0.00000000E+00  0.00000000E+00  0.00000000E+00
  0.00000000E+00  0.00000000E+00  0.00000000E+00
  0.00000000E+00  0.00000000E+00  0.00000000E+00
  0.00000000E+00  0.00000000E+00  0.00000000E+00
  0.00000000E+00  0.00000000E+00  0.00000000E+00
  0.00000000E+00  0.00000000E+00  0.00000000E+00
  0.00000000E+00  0.00000000E+00  0.00000000E+00
  0.00000000E+00  0.00000000E+00  0.00000000E+00
  0.00000000E+00  0.00000000E+00  0.00000000E+00
  0.00000000E+00  0.00000000E+00  0.00000000E+00
  0.00000000E+00  0.00000000E+00  0.00000000E+00
  0.00000000E+00  0.00000000E+00  0.00000000E+00
  0.00000000E+00  0.00000000E+00  0.00000000E+00
  0.00000000E+00  0.00000000E+00  0.00000000E+00
  0.00000000E+00  0.00000000E+00  0.00000000E+00
  0.00000000E+00  0.00000000E+00  0.00000000E+00
  0.00000000E+00  0.00000000E+00  0.00000000E+00
  0.00000000E+00  0.00000000E+00  0.00000000E+00
  0.00000000E+00  0.00000000E+00  0.00000000E+00
  0.00000000E+00  0.00000000E+00  0.00000000E+00
  0.00000000E+00  0.00000000E+00  0.00000000E+00
  0.00000000E+00  0.00000000E+00  0.00000000E+00
  0.00000000E+00  0.00000000E+00  0.00000000E+00
  0.00000000E+00  0.00000000E+00  0.00000000E+00
  0.00000000E+00  0.00000000E+00  0.00000000E+00
  0.00000000E+00  0.00000000E+00  0.00000000E+00
  0.00000000E+00  0.00000000E+00  0.00000000E+00
  0.00000000E+00  0.00000000E+00  0.00000000E+00
  0.00000000E+00  0.00000000E+00  0.00000000E+00
  0.00000000E+00  0.00000000E+00  0.00000000E+00
  0.00000000E+00  0.00000000E+00  0.00000000E+00
  0.00000000E+00  0.00000000E+00  0.00000000E+00
  0.00000000E+00  0.00000000E+00  0.00000000E+00
  0.00000000E+00  0.00000000E+00  0.00000000E+00
  0.00000000E+00  0.00000000E+00  0.00000000E+00
  0.00000000E+00  0.00000000E+00  0.00000000E+00
  0.00000000E+00  0.00000000E+00  0.00000000E+00
  0.00000000E+00  0.00000000E+00  0.00000000E+00
  0.00000000E+00  0.00000000E+00  0.00000000E+00
  0.00000000E+00  0.00000000E+00  0.00000000E+00
  0.00000000E+00  0.00000000E+00  0.00000000E+00
  0.00000000E+00  0.00000000E+00  0.00000000E+00
  0.00000000E+00  0.00000000E+00  0.00000000E+00
  0.00000000E+00  0.00000000E+00  0.00000000E+00
  0.00000000E+00  0.00000000E+00  0.00000000E+00
  0.00000000E+00  0.00000000E+00  0.00000000E+00
  0.00000000E+00  0.00000000E+00  0.00000000E+00
  0.00000000E+00  0.00000000E+00  0.00000000E+00
  0.00000000E+00  0.00000000E+00  0.00000000E+00
  0.00000000E+00  0.00000000E+00  0.00000000E+00
  0.00000000E+00  0.00000000E+00  0.00000000E+00
  0.00000000E+00  0.00000000E+00  0.00000000E+00
  0.00000000E+00  0.00000000E+00  0.00000000E+00
  0.00000000E+00  0.00000000E+00  0.00000000E+00
  0.00000000E+00  0.00000000E+00  0.00000000E+00
  0.00000000E+00  0.00000000E+00  0.00000000E+00
  0.00000000E+00  0.00000000E+00  0.00000000E+00
  0.00000000E+00  0.00000000E+00  0.00000000E+00
  0.00000000E+00  0.00000000E+00  0.00000000E+00
  0.00000000E+00  0.00000000E+00  0.00000000E+00
  0.00000000E+00  0.00000000E+00  0.00000000E+00
  0.00000000E+00  0.00000000E+00  0.00000000E+00
  0.00000000E+00  0.00000000E+00  0.00000000E+00
  0.00000000E+00  0.00000000E+00  0.00000000E+00
  0.00000000E+00  0.00000000E+00  0.00000000E+00
  0.00000000E+00  0.00000000E+00  0.00000000E+00
  0.00000000E+00  0.00000000E+00  0.00000000E+00
  0.00000000E+00  0.00000000E+00  0.00000000E+00
  0.00000000E+00  0.00000000E+00  0.00000000E+00
  0.00000000E+00  0.00000000E+00  0.00000000E+00
  0.00000000E+00  0.00000000E+00  0.00000000E+00
  0.00000000E+00  0.00000000E+00  0.00000000E+00
  0.00000000E+00  0.00000000E+00  0.00000000E+00
  0.00000000E+00  0.00000000E+00  0.00000000E+00
  0.00000000E+00  0.00000000E+00  0.00000000E+00
  0.00000000E+00  0.00000000E+00  0.00000000E+00
  0.00000000E+00  0.00000000E+00  0.00000000E+00
  0.00000000E+00  0.00000000E+00  0.00000000E+00
  0.00000000E+00  0.00000000E+00  0.00000000E+00
  0.00000000E+00  0.00000000E+00  0.00000000E+00
  0.00000000E+00  0.00000000E+00  0.00000000E+00
  0.00000000E+00  0.00000000E+00  0.00000000E+00
  0.00000000E+00  0.00000000E+00  0.00000000E+00
  0.00000000E+00  0.00000000E+00  0.00000000E+00
  0.00000000E+00  0.00000000E+00  0.00000000E+00
  0.00000000E+00  0.00000000E+00  0.00000000E+00
  0.00000000E+00  0.00000000E+00  0.00000000E+00
  0.00000000E+00  0.00000000E+00  0.00000000E+00
