Generated by VASPKIT code               
   1.00000000000000     
    14.5765924453999993    0.0000000000000000    0.0000000000000000
     7.2882962226999997   12.6236993582999997    0.0000000000000000
     0.0000000000000000    0.0000000000000000   39.1618995667000007
   Pt   O    H 
   135    18    36
Selective dynamics
Direct
  0.1111100019999967  0.0000000000000000  0.0255399999999995   F   F   F
  0.7777766589999970  0.6666666870000029  0.0255399999999995   F   F   F
  0.4444433450000034  0.3333333429999996  0.0255399999999995   F   F   F
  0.9999966620000009  0.2222266639999972  0.0255399999999995   F   F   F
  0.6666633489999967  0.8888933059999999  0.0255399999999995   F   F   F
  0.3333300050000005  0.5555599930000028  0.0255399999999995   F   F   F
  0.8888866899999996  0.4444466530000000  0.0255399999999995   F   F   F
  0.5555533770000025  0.1111133169999974  0.0255399999999995   F   F   F
  0.2222200189999981  0.7777799959999996  0.0255399999999995   F   F   F
  0.3333299760000017  0.8888900279999987  0.0255399999999995   F   F   F
  0.9999966620000009  0.5555567150000016  0.0255399999999995   F   F   F
  0.6666632889999988  0.2222233560000006  0.0255399999999995   F   F   F
  0.2222166509999965  0.1111166700000012  0.0255399999999995   F   F   F
  0.8888832929999992  0.7777833339999987  0.0255399999999995   F   F   F
  0.5555499789999985  0.4444499909999990  0.0255399999999995   F   F   F
  0.1111066559999969  0.3333366809999987  0.0255399999999995   F   F   F
  0.7777733209999980  0.0000033479999999  0.0255399999999995   F   F   F
  0.4444399770000018  0.6666700239999983  0.0255399999999995   F   F   F
  0.5555566549999966  0.7777766589999970  0.0255399999999995   F   F   F
  0.2222233270000018  0.4444433150000009  0.0255399999999995   F   F   F
  0.8888899680000009  0.1111099940000031  0.0255399999999995   F   F   F
  0.4444433450000034  0.0000033179999974  0.0255399999999995   F   F   F
  0.1111100090000008  0.6666699649999970  0.0255399999999995   F   F   F
  0.7777766589999970  0.3333366510000033  0.0255399999999995   F   F   F
  0.3333333429999996  0.2222233270000018  0.0255399999999995   F   F   F
  0.0000000000000000  0.8888899680000009  0.0255399999999995   F   F   F
  0.6666666870000029  0.5555566549999966  0.0255399999999995   F   F   F
  0.0000000000000000  0.0000000000000000  0.0840200040000028   F   F   F
  0.6666666870000029  0.6666666870000029  0.0840200040000028   F   F   F
  0.3333333429999996  0.3333333429999996  0.0840200040000028   F   F   F
  0.8888900279999987  0.2222200040000004  0.0840200040000028   F   F   F
  0.5555567150000016  0.8888866899999996  0.0840200040000028   F   F   F
  0.2222233560000006  0.5555533169999975  0.0840200040000028   F   F   F
  0.7777766589999970  0.4444466830000025  0.0840200040000028   F   F   F
  0.4444433150000009  0.1111133469999999  0.0840200040000028   F   F   F
  0.1111099940000031  0.7777799959999996  0.0840200040000028   F   F   F
  0.2222200040000004  0.8888900279999987  0.0840200040000028   F   F   F
  0.8888866899999996  0.5555567150000016  0.0840200040000028   F   F   F
  0.5555533169999975  0.2222233560000006  0.0840200040000028   F   F   F
  0.1111100019999967  0.1111100019999967  0.0840200040000028   F   F   F
  0.7777766589999970  0.7777766589999970  0.0840200040000028   F   F   F
  0.4444433450000034  0.4444433450000034  0.0840200040000028   F   F   F
  0.9999966620000009  0.3333366809999987  0.0840200040000028   F   F   F
  0.6666633489999967  0.0000033479999999  0.0840200040000028   F   F   F
  0.3333300050000005  0.6666700239999983  0.0840200040000028   F   F   F
  0.4444466830000025  0.7777766589999970  0.0840200040000028   F   F   F
  0.1111133469999999  0.4444433150000009  0.0840200040000028   F   F   F
  0.7777799959999996  0.1111099940000031  0.0840200040000028   F   F   F
  0.3333366809999987  0.9999966620000009  0.0840200040000028   F   F   F
  0.0000033479999999  0.6666633489999967  0.0840200040000028   F   F   F
  0.6666700239999983  0.3333300050000005  0.0840200040000028   F   F   F
  0.2222233410000030  0.2222233410000030  0.0840200040000028   F   F   F
  0.8888900279999987  0.8888900279999987  0.0840200040000028   F   F   F
  0.5555566549999966  0.5555566549999966  0.0840200040000028   F   F   F
  0.0004476913543822  0.1109524828035499  0.1423287275845024   T   T   T
  0.6671143433543860  0.7776191698035456  0.1423287275845024   T   T   T
  0.3337810293543850  0.4442858268035461  0.1423287275845024   T   T   T
  0.8895414581874147  0.3325899170233638  0.1419313465596369   T   T   T
  0.5562081441874139  0.9992565740233644  0.1419313465596369   T   T   T
  0.2228747861874167  0.6659232610233673  0.1419313465596369   T   T   T
  0.7778624288053615  0.5560137000718661  0.1419365908071281   T   T   T
  0.4445290858053618  0.2226803720718641  0.1419365908071281   T   T   T
  0.1111957648053641  0.8893470140718669  0.1419365908071281   T   T   T
  0.2218753880659830  0.0002778754756831  0.1423189398156884   T   T   T
  0.8885420590659776  0.6669445614756827  0.1423189398156884   T   T   T
  0.5552087460659805  0.3336112184756828  0.1423189398156884   T   T   T
  0.1111464633487217  0.2216732824130850  0.1423083034782115   T   T   T
  0.7778131273487259  0.8883399544130827  0.1423083034782115   T   T   T
  0.4444797833487230  0.5550066404130819  0.1423083034782115   T   T   T
  0.0002511535330374  0.4442841111408612  0.1418749100416642   T   T   T
  0.6669178005330370  0.1109507751408657  0.1418749100416642   T   T   T
  0.3335844865330364  0.7776174251408619  0.1418749100416642   T   T   T
  0.4444914938018057  0.8885340769767771  0.1418711491599660   T   T   T
  0.1111581578018031  0.5552007629767763  0.1418711491599660   T   T   T
  0.7778248078017991  0.2218674049767790  0.1418711491599660   T   T   T
  0.3328073176085711  0.1109318477602913  0.1419377292864698   T   T   T
  0.9994739746085713  0.7775984977602950  0.1419377292864698   T   T   T
  0.6661406606085706  0.4442651837602940  0.1419377292864698   T   T   T
  0.2221436521522308  0.3333372431312427  0.1418775254289254   T   T   T
  0.8888103241522288  0.0000038991312393  0.1418775254289254   T   T   T
  0.5554770111522246  0.6666705861312416  0.1418775254289254   T   T   T
  0.1112492600902581  0.0003772951202481  0.2008908013917063   T   T   T
  0.7779159170902581  0.6670439671202535  0.2008908013917063   T   T   T
  0.4445826030902577  0.3337106231202503  0.2008908013917063   T   T   T
  0.0009252403845112  0.2211109381451805  0.2008751741278672   T   T   T
  0.6675919063845088  0.8877776251451840  0.2008751741278672   T   T   T
  0.3342585633845092  0.5544442511451854  0.2008751741278672   T   T   T
  0.8888737408798100  0.4439729150763564  0.1995339215924141   T   T   T
  0.5555404278798057  0.1106395790763540  0.1995339215924141   T   T   T
  0.2222070698798088  0.7773062290763569  0.1995339215924141   T   T   T
  0.3336100900870253  0.8884137292774303  0.1998861206622112   T   T   T
  0.0002767570870266  0.5550804152774296  0.1998861206622112   T   T   T
  0.6669434330870251  0.2217470572774318  0.1998861206622112   T   T   T
  0.2217045617627134  0.1106588513147317  0.2008747850779752   T   T   T
  0.8883712027627123  0.7773255003147319  0.2008747850779752   T   T   T
  0.5550378897627152  0.4439921873147271  0.2008747850779752   T   T   T
  0.1112409275960147  0.3330708799887466  0.1998605800548802   T   T   T
  0.7779075915960120  0.9997375359887437  0.1998605800548802   T   T   T
  0.4445742485960125  0.6664042229887466  0.1998605800548802   T   T   T
  0.5556362103024920  0.7772797197376849  0.1998965519051005   T   T   T
  0.2223028823024899  0.4439463767376849  0.1998965519051005   T   T   T
  0.8889695243024928  0.1106130557376801  0.1998965519051005   T   T   T
  0.4446202155025418  0.9998057270126142  0.1995259638794319   T   T   T
  0.1112868795025461  0.6664724140126099  0.1995259638794319   T   T   T
  0.7779535585025413  0.3331390700126140  0.1995259638794319   T   T   T
  0.3339120885214470  0.2215646522893059  0.1995233845797894   T   T   T
  0.0005787545214518  0.8882313392893022  0.1995233845797894   T   T   T
  0.6672454015214513  0.5548979662893001  0.1995233845797894   T   T   T
  0.3329052569786660  0.3320456822146491  0.2589952229030175   T   T   T
  0.9995719429786649  0.9987123692146522  0.2589952229030175   T   T   T
  0.6662385699786628  0.6653789962146501  0.2589952229030175   T   T   T
  0.5545237650688523  0.8886546627525548  0.2588287441301936   T   T   T
  0.2211904360688535  0.5553213497525505  0.2588287441301936   T   T   T
  0.8878570780688565  0.2219879917525533  0.2588287441301936   T   T   T
  0.4448469823612428  0.1102935902867180  0.2588846485585675   T   T   T
  0.1115136463612400  0.7769602552867192  0.2588846485585675   T   T   T
  0.7781803263612458  0.4436269112867229  0.2588846485585675   T   T   T
  0.8899905078323590  0.5533960894037923  0.2588310298646200   T   T   T
  0.5566571938323582  0.2200627604037939  0.2588310298646200   T   T   T
  0.2233238358323609  0.8867294024037965  0.2588310298646200   T   T   T
  0.1115671901128232  0.1103555364188585  0.2614826615080629   T   T   T
  0.7782338401128265  0.7770222154188536  0.2614826615080629   T   T   T
  0.4449005261128258  0.4436888724188542  0.2614826615080629   T   T   T
  0.9998007832791359  0.3339602736222044  0.2589488762519597   T   T   T
  0.6664674702791317  0.0006269406222056  0.2589488762519597   T   T   T
  0.3331341272791323  0.6672935876222054  0.2589488762519597   T   T   T
  0.4447132988220189  0.7770855687889157  0.2592606367428963   T   T   T
  0.1113799638220203  0.4437522257889163  0.2592606367428963   T   T   T
  0.7780466128220203  0.1104189047889184  0.2592606367428963   T   T   T
  0.3351002752907423  0.9984695107965125  0.2589401289072542   T   T   T
  0.0017669422907435  0.6651361967965117  0.2589401289072542   T   T   T
  0.6684336182907419  0.3318028537965121  0.2589401289072542   T   T   T
  0.2232436807053077  0.2224283224364895  0.2587358016756167   T   T   T
  0.8899103667053065  0.8890950084364957  0.2587358016756167   T   T   T
  0.5565769937053116  0.5557616354364936  0.2587358016756167   T   T   T
  0.2201019737416089  0.9041923925221025  0.3485370537639723   T   T   T
  0.8867686607416044  0.5708590795221054  0.3485370537639723   T   T   T
  0.5534352877416094  0.2375257215221082  0.3485370537639723   T   T   T
  0.7892969485412067  0.4322176081790695  0.3499580152240887   T   T   T
  0.4559636055412070  0.0988842721790671  0.3499580152240887   T   T   T
  0.1226302845412020  0.7655509211790669  0.3499580152240887   T   T   T
  0.4355349975907830  0.7860294909925428  0.3499067128963230   T   T   T
  0.1022016615907805  0.4526961479925433  0.3499067128963230   T   T   T
  0.7688683405907822  0.1193628269925385  0.3499067128963230   T   T   T
  0.9066066938707729  0.2173258627825913  0.3486285522255844   T   T   T
  0.5732733808707757  0.8839925047825941  0.3486285522255844   T   T   T
  0.2399400228707782  0.5506591917825898  0.3486285522255844   T   T   T
  0.2208335668342696  0.2162888671596210  0.3481174232940901   T   T   T
  0.8875002088342723  0.8829555091596235  0.3481174232940901   T   T   T
  0.5541668948342715  0.5496221951596227  0.3481174232940901   T   T   T
  0.1132352363184446  0.1114902583161624  0.3221705300979676   T   T   T
  0.7799018933184454  0.7781569143161593  0.3221705300979676   T   T   T
  0.4465685793184446  0.4448236013161620  0.3221705300979676   T   T   T
  0.2991879709771437  0.8617634155034162  0.3452390852931647   T   T   T
  0.9658546279771436  0.5284301025034119  0.3452390852931647   T   T   T
  0.6325213139771428  0.1950967445034146  0.3452390852931647   T   T   T
  0.8642824457048964  0.2964991451528598  0.3453592381329907   T   T   T
  0.5309491327048922  0.9631658321528631  0.3453592381329907   T   T   T
  0.1976157737048911  0.6298324591528610  0.3453592381329907   T   T   T
  0.1852985422877444  0.1815202595931664  0.3366716786216066   T   T   T
  0.8519651842877403  0.8481869015931695  0.3366716786216066   T   T   T
  0.5186318702877395  0.5148535875931687  0.3366716786216066   T   T   T
  0.1404322972627728  0.3773233399208140  0.3433559606356594   T   T   T
  0.8070989392627681  0.0439900079208189  0.3433559606356594   T   T   T
  0.4737656252627677  0.7106566829208210  0.3433559606356594   T   T   T
  0.4793453841360790  0.8160632497087409  0.3422458320533144   T   T   T
  0.1460120561360769  0.4827299067087412  0.3422458320533144   T   T   T
  0.8126786981360798  0.1493965777087425  0.3422458320533144   T   T   T
  0.0375621398906201  0.1470672581489408  0.3298202537607424   T   T   T
  0.7042287848906263  0.8137339301489461  0.3298202537607424   T   T   T
  0.3708954718906225  0.4804005861489427  0.3298202537607424   T   T   T
  0.1488957691495321  0.0357664098053271  0.3297247094176415   T   T   T
  0.8155624411495306  0.7024330848053291  0.3297247094176415   T   T   T
  0.4822290971495268  0.3690997418053295  0.3297247094176415   T   T   T
  0.8190254700816155  0.4761064870075853  0.3421124200840591   T   T   T
  0.4856921260816193  0.1427731590075833  0.3421124200840591   T   T   T
  0.1523587980816175  0.8094398300075845  0.3421124200840591   T   T   T
  0.3804189383370186  0.1369493623034576  0.3435527440143840   T   T   T
  0.0470856063370231  0.8036160033034562  0.3435527440143840   T   T   T
  0.7137522813370250  0.4702826903034596  0.3435527440143840   T   T   T
  0.2123453987810965  0.2083902555193389  0.3724244740500600   T   T   T
  0.8790120857810920  0.8750569415193384  0.3724244740500600   T   T   T
  0.5456787127810970  0.5417235685193434  0.3724244740500600   T   T   T
  0.2116459413910705  0.9081505392629222  0.3732649886519701   T   T   T
  0.8783125833910729  0.5748172252629214  0.3732649886519701   T   T   T
  0.5449792703910686  0.2414838672629237  0.3732649886519701   T   T   T
  0.9110646655188739  0.2088211952951026  0.3733519093257867   T   T   T
  0.5777313515188731  0.8754878522950957  0.3733519093257867   T   T   T
  0.2443979935188758  0.5421545382951021  0.3733519093257867   T   T   T
 
  0.00000000E+00  0.00000000E+00  0.00000000E+00
  0.00000000E+00  0.00000000E+00  0.00000000E+00
  0.00000000E+00  0.00000000E+00  0.00000000E+00
  0.00000000E+00  0.00000000E+00  0.00000000E+00
  0.00000000E+00  0.00000000E+00  0.00000000E+00
  0.00000000E+00  0.00000000E+00  0.00000000E+00
  0.00000000E+00  0.00000000E+00  0.00000000E+00
  0.00000000E+00  0.00000000E+00  0.00000000E+00
  0.00000000E+00  0.00000000E+00  0.00000000E+00
  0.00000000E+00  0.00000000E+00  0.00000000E+00
  0.00000000E+00  0.00000000E+00  0.00000000E+00
  0.00000000E+00  0.00000000E+00  0.00000000E+00
  0.00000000E+00  0.00000000E+00  0.00000000E+00
  0.00000000E+00  0.00000000E+00  0.00000000E+00
  0.00000000E+00  0.00000000E+00  0.00000000E+00
  0.00000000E+00  0.00000000E+00  0.00000000E+00
  0.00000000E+00  0.00000000E+00  0.00000000E+00
  0.00000000E+00  0.00000000E+00  0.00000000E+00
  0.00000000E+00  0.00000000E+00  0.00000000E+00
  0.00000000E+00  0.00000000E+00  0.00000000E+00
  0.00000000E+00  0.00000000E+00  0.00000000E+00
  0.00000000E+00  0.00000000E+00  0.00000000E+00
  0.00000000E+00  0.00000000E+00  0.00000000E+00
  0.00000000E+00  0.00000000E+00  0.00000000E+00
  0.00000000E+00  0.00000000E+00  0.00000000E+00
  0.00000000E+00  0.00000000E+00  0.00000000E+00
  0.00000000E+00  0.00000000E+00  0.00000000E+00
  0.00000000E+00  0.00000000E+00  0.00000000E+00
  0.00000000E+00  0.00000000E+00  0.00000000E+00
  0.00000000E+00  0.00000000E+00  0.00000000E+00
  0.00000000E+00  0.00000000E+00  0.00000000E+00
  0.00000000E+00  0.00000000E+00  0.00000000E+00
  0.00000000E+00  0.00000000E+00  0.00000000E+00
  0.00000000E+00  0.00000000E+00  0.00000000E+00
  0.00000000E+00  0.00000000E+00  0.00000000E+00
  0.00000000E+00  0.00000000E+00  0.00000000E+00
  0.00000000E+00  0.00000000E+00  0.00000000E+00
  0.00000000E+00  0.00000000E+00  0.00000000E+00
  0.00000000E+00  0.00000000E+00  0.00000000E+00
  0.00000000E+00  0.00000000E+00  0.00000000E+00
  0.00000000E+00  0.00000000E+00  0.00000000E+00
  0.00000000E+00  0.00000000E+00  0.00000000E+00
  0.00000000E+00  0.00000000E+00  0.00000000E+00
  0.00000000E+00  0.00000000E+00  0.00000000E+00
  0.00000000E+00  0.00000000E+00  0.00000000E+00
  0.00000000E+00  0.00000000E+00  0.00000000E+00
  0.00000000E+00  0.00000000E+00  0.00000000E+00
  0.00000000E+00  0.00000000E+00  0.00000000E+00
  0.00000000E+00  0.00000000E+00  0.00000000E+00
  0.00000000E+00  0.00000000E+00  0.00000000E+00
  0.00000000E+00  0.00000000E+00  0.00000000E+00
  0.00000000E+00  0.00000000E+00  0.00000000E+00
  0.00000000E+00  0.00000000E+00  0.00000000E+00
  0.00000000E+00  0.00000000E+00  0.00000000E+00
  0.00000000E+00  0.00000000E+00  0.00000000E+00
  0.00000000E+00  0.00000000E+00  0.00000000E+00
  0.00000000E+00  0.00000000E+00  0.00000000E+00
  0.00000000E+00  0.00000000E+00  0.00000000E+00
  0.00000000E+00  0.00000000E+00  0.00000000E+00
  0.00000000E+00  0.00000000E+00  0.00000000E+00
  0.00000000E+00  0.00000000E+00  0.00000000E+00
  0.00000000E+00  0.00000000E+00  0.00000000E+00
  0.00000000E+00  0.00000000E+00  0.00000000E+00
  0.00000000E+00  0.00000000E+00  0.00000000E+00
  0.00000000E+00  0.00000000E+00  0.00000000E+00
  0.00000000E+00  0.00000000E+00  0.00000000E+00
  0.00000000E+00  0.00000000E+00  0.00000000E+00
  0.00000000E+00  0.00000000E+00  0.00000000E+00
  0.00000000E+00  0.00000000E+00  0.00000000E+00
  0.00000000E+00  0.00000000E+00  0.00000000E+00
  0.00000000E+00  0.00000000E+00  0.00000000E+00
  0.00000000E+00  0.00000000E+00  0.00000000E+00
  0.00000000E+00  0.00000000E+00  0.00000000E+00
  0.00000000E+00  0.00000000E+00  0.00000000E+00
  0.00000000E+00  0.00000000E+00  0.00000000E+00
  0.00000000E+00  0.00000000E+00  0.00000000E+00
  0.00000000E+00  0.00000000E+00  0.00000000E+00
  0.00000000E+00  0.00000000E+00  0.00000000E+00
  0.00000000E+00  0.00000000E+00  0.00000000E+00
  0.00000000E+00  0.00000000E+00  0.00000000E+00
  0.00000000E+00  0.00000000E+00  0.00000000E+00
  0.00000000E+00  0.00000000E+00  0.00000000E+00
  0.00000000E+00  0.00000000E+00  0.00000000E+00
  0.00000000E+00  0.00000000E+00  0.00000000E+00
  0.00000000E+00  0.00000000E+00  0.00000000E+00
  0.00000000E+00  0.00000000E+00  0.00000000E+00
  0.00000000E+00  0.00000000E+00  0.00000000E+00
  0.00000000E+00  0.00000000E+00  0.00000000E+00
  0.00000000E+00  0.00000000E+00  0.00000000E+00
  0.00000000E+00  0.00000000E+00  0.00000000E+00
  0.00000000E+00  0.00000000E+00  0.00000000E+00
  0.00000000E+00  0.00000000E+00  0.00000000E+00
  0.00000000E+00  0.00000000E+00  0.00000000E+00
  0.00000000E+00  0.00000000E+00  0.00000000E+00
  0.00000000E+00  0.00000000E+00  0.00000000E+00
  0.00000000E+00  0.00000000E+00  0.00000000E+00
  0.00000000E+00  0.00000000E+00  0.00000000E+00
  0.00000000E+00  0.00000000E+00  0.00000000E+00
  0.00000000E+00  0.00000000E+00  0.00000000E+00
  0.00000000E+00  0.00000000E+00  0.00000000E+00
  0.00000000E+00  0.00000000E+00  0.00000000E+00
  0.00000000E+00  0.00000000E+00  0.00000000E+00
  0.00000000E+00  0.00000000E+00  0.00000000E+00
  0.00000000E+00  0.00000000E+00  0.00000000E+00
  0.00000000E+00  0.00000000E+00  0.00000000E+00
  0.00000000E+00  0.00000000E+00  0.00000000E+00
  0.00000000E+00  0.00000000E+00  0.00000000E+00
  0.00000000E+00  0.00000000E+00  0.00000000E+00
  0.00000000E+00  0.00000000E+00  0.00000000E+00
  0.00000000E+00  0.00000000E+00  0.00000000E+00
  0.00000000E+00  0.00000000E+00  0.00000000E+00
  0.00000000E+00  0.00000000E+00  0.00000000E+00
  0.00000000E+00  0.00000000E+00  0.00000000E+00
  0.00000000E+00  0.00000000E+00  0.00000000E+00
  0.00000000E+00  0.00000000E+00  0.00000000E+00
  0.00000000E+00  0.00000000E+00  0.00000000E+00
  0.00000000E+00  0.00000000E+00  0.00000000E+00
  0.00000000E+00  0.00000000E+00  0.00000000E+00
  0.00000000E+00  0.00000000E+00  0.00000000E+00
  0.00000000E+00  0.00000000E+00  0.00000000E+00
  0.00000000E+00  0.00000000E+00  0.00000000E+00
  0.00000000E+00  0.00000000E+00  0.00000000E+00
  0.00000000E+00  0.00000000E+00  0.00000000E+00
  0.00000000E+00  0.00000000E+00  0.00000000E+00
  0.00000000E+00  0.00000000E+00  0.00000000E+00
  0.00000000E+00  0.00000000E+00  0.00000000E+00
  0.00000000E+00  0.00000000E+00  0.00000000E+00
  0.00000000E+00  0.00000000E+00  0.00000000E+00
  0.00000000E+00  0.00000000E+00  0.00000000E+00
  0.00000000E+00  0.00000000E+00  0.00000000E+00
  0.00000000E+00  0.00000000E+00  0.00000000E+00
  0.00000000E+00  0.00000000E+00  0.00000000E+00
  0.00000000E+00  0.00000000E+00  0.00000000E+00
  0.00000000E+00  0.00000000E+00  0.00000000E+00
  0.00000000E+00  0.00000000E+00  0.00000000E+00
  0.00000000E+00  0.00000000E+00  0.00000000E+00
  0.00000000E+00  0.00000000E+00  0.00000000E+00
  0.00000000E+00  0.00000000E+00  0.00000000E+00
  0.00000000E+00  0.00000000E+00  0.00000000E+00
  0.00000000E+00  0.00000000E+00  0.00000000E+00
  0.00000000E+00  0.00000000E+00  0.00000000E+00
  0.00000000E+00  0.00000000E+00  0.00000000E+00
  0.00000000E+00  0.00000000E+00  0.00000000E+00
  0.00000000E+00  0.00000000E+00  0.00000000E+00
  0.00000000E+00  0.00000000E+00  0.00000000E+00
  0.00000000E+00  0.00000000E+00  0.00000000E+00
  0.00000000E+00  0.00000000E+00  0.00000000E+00
  0.00000000E+00  0.00000000E+00  0.00000000E+00
  0.00000000E+00  0.00000000E+00  0.00000000E+00
  0.00000000E+00  0.00000000E+00  0.00000000E+00
  0.00000000E+00  0.00000000E+00  0.00000000E+00
  0.00000000E+00  0.00000000E+00  0.00000000E+00
  0.00000000E+00  0.00000000E+00  0.00000000E+00
  0.00000000E+00  0.00000000E+00  0.00000000E+00
  0.00000000E+00  0.00000000E+00  0.00000000E+00
  0.00000000E+00  0.00000000E+00  0.00000000E+00
  0.00000000E+00  0.00000000E+00  0.00000000E+00
  0.00000000E+00  0.00000000E+00  0.00000000E+00
  0.00000000E+00  0.00000000E+00  0.00000000E+00
  0.00000000E+00  0.00000000E+00  0.00000000E+00
  0.00000000E+00  0.00000000E+00  0.00000000E+00
  0.00000000E+00  0.00000000E+00  0.00000000E+00
  0.00000000E+00  0.00000000E+00  0.00000000E+00
  0.00000000E+00  0.00000000E+00  0.00000000E+00
  0.00000000E+00  0.00000000E+00  0.00000000E+00
  0.00000000E+00  0.00000000E+00  0.00000000E+00
  0.00000000E+00  0.00000000E+00  0.00000000E+00
  0.00000000E+00  0.00000000E+00  0.00000000E+00
  0.00000000E+00  0.00000000E+00  0.00000000E+00
  0.00000000E+00  0.00000000E+00  0.00000000E+00
  0.00000000E+00  0.00000000E+00  0.00000000E+00
  0.00000000E+00  0.00000000E+00  0.00000000E+00
  0.00000000E+00  0.00000000E+00  0.00000000E+00
  0.00000000E+00  0.00000000E+00  0.00000000E+00
  0.00000000E+00  0.00000000E+00  0.00000000E+00
  0.00000000E+00  0.00000000E+00  0.00000000E+00
  0.00000000E+00  0.00000000E+00  0.00000000E+00
  0.00000000E+00  0.00000000E+00  0.00000000E+00
  0.00000000E+00  0.00000000E+00  0.00000000E+00
  0.00000000E+00  0.00000000E+00  0.00000000E+00
  0.00000000E+00  0.00000000E+00  0.00000000E+00
  0.00000000E+00  0.00000000E+00  0.00000000E+00
  0.00000000E+00  0.00000000E+00  0.00000000E+00
  0.00000000E+00  0.00000000E+00  0.00000000E+00
  0.00000000E+00  0.00000000E+00  0.00000000E+00
  0.00000000E+00  0.00000000E+00  0.00000000E+00
  0.00000000E+00  0.00000000E+00  0.00000000E+00
  0.00000000E+00  0.00000000E+00  0.00000000E+00
  0.00000000E+00  0.00000000E+00  0.00000000E+00
