Generated by VASPKIT code               
   1.00000000000000     
    14.5765047072999998    0.0000000000000000    0.0000000000000000
     7.2882515131999996   12.6236238602000004    0.0000000000000000
     0.0000000000000000    0.0000000000000000   39.1618995667000007
   Pt
   135
Selective dynamics
Direct
  0.1111090030000028  0.0000019969999983  0.0255399999999995   F   F   F
  0.7777756449999984  0.6666686530000021  0.0255399999999995   F   F   F
  0.4444423320000013  0.3333353399999979  0.0255399999999995   F   F   F
  0.9999976750000030  0.2222246680000026  0.0255399999999995   F   F   F
  0.6666643619999988  0.8888913389999971  0.0255399999999995   F   F   F
  0.3333310189999992  0.5555580259999999  0.0255399999999995   F   F   F
  0.8888866899999996  0.4444466530000000  0.0255399999999995   F   F   F
  0.5555533770000025  0.1111133169999974  0.0255399999999995   F   F   F
  0.2222200189999981  0.7777799959999996  0.0255399999999995   F   F   F
  0.3333310189999992  0.8888909819999995  0.0255399999999995   F   F   F
  0.9999976750000030  0.5555576679999987  0.0255399999999995   F   F   F
  0.6666643619999988  0.2222243100000014  0.0255399999999995   F   F   F
  0.2222196760000017  0.1111136669999979  0.0255399999999995   F   F   F
  0.8888863330000021  0.7777803540000008  0.0255399999999995   F   F   F
  0.5555530190000013  0.4444470110000012  0.0255399999999995   F   F   F
  0.1111086829999977  0.3333356679999966  0.0255399999999995   F   F   F
  0.7777753470000022  0.0000023349999978  0.0255399999999995   F   F   F
  0.4444420040000026  0.6666690110000033  0.0255399999999995   F   F   F
  0.5555536749999987  0.7777796980000033  0.0255399999999995   F   F   F
  0.2222203460000003  0.4444463549999966  0.0255399999999995   F   F   F
  0.8888869880000030  0.1111130339999988  0.0255399999999995   F   F   F
  0.4444423320000013  0.0000023440000021  0.0255399999999995   F   F   F
  0.1111089959999987  0.6666690110000033  0.0255399999999995   F   F   F
  0.7777756449999984  0.3333356679999966  0.0255399999999995   F   F   F
  0.3333313170000025  0.2222243399999968  0.0255399999999995   F   F   F
  0.9999979729999993  0.8888909819999995  0.0255399999999995   F   F   F
  0.6666646600000021  0.5555576679999987  0.0255399999999995   F   F   F
  0.0000000000000000  0.0000000000000000  0.0840200040000028   F   F   F
  0.6666666870000029  0.6666666870000029  0.0840200040000028   F   F   F
  0.3333333429999996  0.3333333429999996  0.0840200040000028   F   F   F
  0.8888890149999966  0.2222219849999973  0.0840200040000028   F   F   F
  0.5555557010000030  0.8888886570000025  0.0840200040000028   F   F   F
  0.2222223429999985  0.5555553439999983  0.0840200040000028   F   F   F
  0.7777776719999991  0.4444446560000017  0.0840200040000028   F   F   F
  0.4444443289999995  0.1111113210000028  0.0840200040000028   F   F   F
  0.1111110080000017  0.7777779700000025  0.0840200040000028   F   F   F
  0.2222219849999973  0.8888890149999966  0.0840200040000028   F   F   F
  0.8888886570000025  0.5555557010000030  0.0840200040000028   F   F   F
  0.5555553439999983  0.2222223429999985  0.0840200040000028   F   F   F
  0.1111109929999969  0.1111109929999969  0.0840200040000028   F   F   F
  0.7777776719999991  0.7777776719999991  0.0840200040000028   F   F   F
  0.4444443289999995  0.4444443289999995  0.0840200040000028   F   F   F
  0.9999996419999988  0.3333336709999983  0.0840200040000028   F   F   F
  0.6666663290000017  0.0000003379999995  0.0840200040000028   F   F   F
  0.3333329860000021  0.6666669849999991  0.0840200040000028   F   F   F
  0.4444446560000017  0.7777776719999991  0.0840200040000028   F   F   F
  0.1111113210000028  0.4444443289999995  0.0840200040000028   F   F   F
  0.7777779700000025  0.1111110080000017  0.0840200040000028   F   F   F
  0.3333336709999983  0.9999996419999988  0.0840200040000028   F   F   F
  0.0000003379999995  0.6666663290000017  0.0840200040000028   F   F   F
  0.6666669849999991  0.3333329860000021  0.0840200040000028   F   F   F
  0.2222223280000009  0.2222223280000009  0.0840200040000028   F   F   F
  0.8888890149999966  0.8888890149999966  0.0840200040000028   F   F   F
  0.5555556420000016  0.5555556420000016  0.0840200040000028   F   F   F
  0.0000011920252493  0.1111095818586133  0.1420010530169140   T   T   T
  0.6666605840241472  0.7777880136142347  0.1420013041385584   T   T   T
  0.3333309408093313  0.4444447592791455  0.1419994950945006   T   T   T
  0.8888931155988000  0.3333261430590158  0.1420013436292555   T   T   T
  0.5555515238803048  0.0000046716100011  0.1420012103112745   T   T   T
  0.2222150662820838  0.6666743140216137  0.1419994877890242   T   T   T
  0.7777754602003981  0.5555576101129205  0.1420013788374018   T   T   T
  0.4444430918537523  0.2222192586966552  0.1420002160655864   T   T   T
  0.1111037657082894  0.8888968413985422  0.1420002333472738   T   T   T
  0.2222181281461890  0.0000073294326695  0.1420005920508639   T   T   T
  0.8888860803804119  0.6666756366216108  0.1420012971700232   T   T   T
  0.5555559115981255  0.3333305507381341  0.1419997919676794   T   T   T
  0.1111146760695409  0.2222172664833069  0.1420013869411720   T   T   T
  0.7777760154899444  0.8888974043253188  0.1420016115721133   T   T   T
  0.4444391187162542  0.5555591715471205  0.1419996267169587   T   T   T
  0.0000031232512467  0.4444407823208653  0.1420013723665898   T   T   T
  0.6666697783816730  0.1111084209127988  0.1420009433958903   T   T   T
  0.3333254624257558  0.7777871240859191  0.1419996676405683   T   T   T
  0.4444357269093920  0.8888993890133158  0.1420003959090474   T   T   T
  0.1111085222103030  0.5555601072928931  0.1420001019932241   T   T   T
  0.7777814399908992  0.2222153051670676  0.1420006923607298   T   T   T
  0.3333288047153934  0.1111123839158022  0.1420008494747771   T   T   T
 -0.0000067950792052  0.7777886314841987  0.1420005915723123   T   T   T
  0.6666648335694201  0.4444422267479984  0.1420005050512075   T   T   T
  0.2222224559889830  0.3333284556721698  0.1420005933531347   T   T   T
  0.8888871964154991  0.0000019202613402  0.1420010480232256   T   T   T
  0.5555481707901718  0.6666731645746333  0.1420003110183859   T   T   T
  0.1111112244237579  0.0000021005296624  0.1999992212672745   T   T   T
  0.7777789066365054  0.6666682829930546  0.2000041001055016   T   T   T
  0.4444484775336700  0.3333263037993354  0.2000012974277898   T   T   T
  0.0000079155357615  0.2222139157913365  0.2000000694831401   T   T   T
  0.6666680927082413  0.8888923400366051  0.2000010226505645   T   T   T
  0.3333349222915953  0.5555520253517962  0.2000018063338979   T   T   T
  0.8888961396834676  0.4444350488368791  0.2000036130172572   T   T   T
  0.5555602338816950  0.1111054835333102  0.2000001349048592   T   T   T
  0.2222200834037902  0.7777795842337933  0.2000009525917129   T   T   T
  0.3333324046003919  0.8888927397870585  0.2000002654716197   T   T   T
  0.0000054285955837  0.5555513466129552  0.2000032487227117   T   T   T
  0.6666728842482742  0.2222149462375898  0.1999999769998376   T   T   T
  0.2222265696994082  0.1111073132180737  0.1999987637581605   T   T   T
  0.8888896257849619  0.7777831310627079  0.2000012545747310   T   T   T
  0.5555572822361986  0.4444396638487891  0.2000017370817627   T   T   T
  0.1111207324004298  0.3333203582857510  0.2000012331964131   T   T   T
  0.7777812289578749 -0.0000004823803421  0.1999991125315148   T   T   T
  0.4444434032100456  0.6666657165981333  0.2000022452143313   T   T   T
  0.5555538821240475  0.7777811362368134  0.2000024273680884   T   T   T
  0.2222281110321544  0.4444362231708880  0.2000018097942179   T   T   T
  0.8888926075157348  0.1111076811359006  0.1999989533792063   T   T   T
  0.4444452680472231  0.0000001447676512  0.1999997144530958   T   T   T
  0.1111116104181722  0.6666680504874348  0.2000014276538115   T   T   T
  0.7777839625286044  0.3333245978361881  0.2000012833127784   T   T   T
  0.3333379842066763  0.2222130900106191  0.2000001446362763   T   T   T
 -0.0000021908791773  0.8888927418956265  0.1999995454395387   T   T   T
  0.6666671579015517  0.5555523018565987  0.2000036213396287   T   T   T
  0.0000009364700199  0.0000018957990044  0.2591269209909210   T   T   T
  0.6666606355592890  0.6666702383238878  0.2591356425895365   T   T   T
  0.3333328054330830  0.3333302063447884  0.2591308688175935   T   T   T
  0.8888925115881474  0.2222195766251817  0.2591285939339056   T   T   T
  0.5555529864493413  0.8888936792783103  0.2591306763297657   T   T   T
  0.2222185823658332  0.5555581771088027  0.2591299745839343   T   T   T
  0.7777754953354911  0.4444427183174213  0.2591350329416992   T   T   T
  0.4444446720154769  0.1111103124199348  0.2591298602384089   T   T   T
  0.1111066861774890  0.7777838705965150  0.2591287937122256   T   T   T
  0.2222193150785217  0.8888921095485133  0.2591282446120621   T   T   T
  0.8888890088015108  0.5555548563791606  0.2591377791089776   T   T   T
  0.5555563412252141  0.2222226050829453  0.2591313913168493   T   T   T
  0.1111146454769384  0.1111089626654241  0.2591271508473104   T   T   T
  0.7777775464450134  0.7777848507664862  0.2591343805301521   T   T   T
  0.4444396621674160  0.4444473526129024  0.2591310402920203   T   T   T
  0.0000055439707196  0.3333256290880355  0.2591326141438154   T   T   T
  0.6666699796322784  0.0000029823601630  0.2591307902667818   T   T   T
  0.3333274455307547  0.6666700369460203  0.2591300080624107   T   T   T
  0.4444370451618364  0.7777816827222291  0.2591304670577848   T   T   T
  0.1111129465187880  0.4444391095793193  0.2591330964604477   T   T   T
  0.7777803872261548  0.1111117749421896  0.2591284380142332   T   T   T
  0.3333306680736950  0.0000019705151790  0.2591273999991566   T   T   T
 -0.0000022737890646  0.6666729002393523  0.2591329264586711   T   T   T
  0.6666638846540450  0.3333349600124561  0.2591311828338737   T   T   T
  0.2222244625478508  0.2222160068721278  0.2591291809773645   T   T   T
  0.8888890524669047  0.8888951162884102  0.2591294890102623   T   T   T
  0.5555473198437769  0.5555583105291668  0.2591330268895695   T   T   T
 
  0.00000000E+00  0.00000000E+00  0.00000000E+00
  0.00000000E+00  0.00000000E+00  0.00000000E+00
  0.00000000E+00  0.00000000E+00  0.00000000E+00
  0.00000000E+00  0.00000000E+00  0.00000000E+00
  0.00000000E+00  0.00000000E+00  0.00000000E+00
  0.00000000E+00  0.00000000E+00  0.00000000E+00
  0.00000000E+00  0.00000000E+00  0.00000000E+00
  0.00000000E+00  0.00000000E+00  0.00000000E+00
  0.00000000E+00  0.00000000E+00  0.00000000E+00
  0.00000000E+00  0.00000000E+00  0.00000000E+00
  0.00000000E+00  0.00000000E+00  0.00000000E+00
  0.00000000E+00  0.00000000E+00  0.00000000E+00
  0.00000000E+00  0.00000000E+00  0.00000000E+00
  0.00000000E+00  0.00000000E+00  0.00000000E+00
  0.00000000E+00  0.00000000E+00  0.00000000E+00
  0.00000000E+00  0.00000000E+00  0.00000000E+00
  0.00000000E+00  0.00000000E+00  0.00000000E+00
  0.00000000E+00  0.00000000E+00  0.00000000E+00
  0.00000000E+00  0.00000000E+00  0.00000000E+00
  0.00000000E+00  0.00000000E+00  0.00000000E+00
  0.00000000E+00  0.00000000E+00  0.00000000E+00
  0.00000000E+00  0.00000000E+00  0.00000000E+00
  0.00000000E+00  0.00000000E+00  0.00000000E+00
  0.00000000E+00  0.00000000E+00  0.00000000E+00
  0.00000000E+00  0.00000000E+00  0.00000000E+00
  0.00000000E+00  0.00000000E+00  0.00000000E+00
  0.00000000E+00  0.00000000E+00  0.00000000E+00
  0.00000000E+00  0.00000000E+00  0.00000000E+00
  0.00000000E+00  0.00000000E+00  0.00000000E+00
  0.00000000E+00  0.00000000E+00  0.00000000E+00
  0.00000000E+00  0.00000000E+00  0.00000000E+00
  0.00000000E+00  0.00000000E+00  0.00000000E+00
  0.00000000E+00  0.00000000E+00  0.00000000E+00
  0.00000000E+00  0.00000000E+00  0.00000000E+00
  0.00000000E+00  0.00000000E+00  0.00000000E+00
  0.00000000E+00  0.00000000E+00  0.00000000E+00
  0.00000000E+00  0.00000000E+00  0.00000000E+00
  0.00000000E+00  0.00000000E+00  0.00000000E+00
  0.00000000E+00  0.00000000E+00  0.00000000E+00
  0.00000000E+00  0.00000000E+00  0.00000000E+00
  0.00000000E+00  0.00000000E+00  0.00000000E+00
  0.00000000E+00  0.00000000E+00  0.00000000E+00
  0.00000000E+00  0.00000000E+00  0.00000000E+00
  0.00000000E+00  0.00000000E+00  0.00000000E+00
  0.00000000E+00  0.00000000E+00  0.00000000E+00
  0.00000000E+00  0.00000000E+00  0.00000000E+00
  0.00000000E+00  0.00000000E+00  0.00000000E+00
  0.00000000E+00  0.00000000E+00  0.00000000E+00
  0.00000000E+00  0.00000000E+00  0.00000000E+00
  0.00000000E+00  0.00000000E+00  0.00000000E+00
  0.00000000E+00  0.00000000E+00  0.00000000E+00
  0.00000000E+00  0.00000000E+00  0.00000000E+00
  0.00000000E+00  0.00000000E+00  0.00000000E+00
  0.00000000E+00  0.00000000E+00  0.00000000E+00
  0.00000000E+00  0.00000000E+00  0.00000000E+00
  0.00000000E+00  0.00000000E+00  0.00000000E+00
  0.00000000E+00  0.00000000E+00  0.00000000E+00
  0.00000000E+00  0.00000000E+00  0.00000000E+00
  0.00000000E+00  0.00000000E+00  0.00000000E+00
  0.00000000E+00  0.00000000E+00  0.00000000E+00
  0.00000000E+00  0.00000000E+00  0.00000000E+00
  0.00000000E+00  0.00000000E+00  0.00000000E+00
  0.00000000E+00  0.00000000E+00  0.00000000E+00
  0.00000000E+00  0.00000000E+00  0.00000000E+00
  0.00000000E+00  0.00000000E+00  0.00000000E+00
  0.00000000E+00  0.00000000E+00  0.00000000E+00
  0.00000000E+00  0.00000000E+00  0.00000000E+00
  0.00000000E+00  0.00000000E+00  0.00000000E+00
  0.00000000E+00  0.00000000E+00  0.00000000E+00
  0.00000000E+00  0.00000000E+00  0.00000000E+00
  0.00000000E+00  0.00000000E+00  0.00000000E+00
  0.00000000E+00  0.00000000E+00  0.00000000E+00
  0.00000000E+00  0.00000000E+00  0.00000000E+00
  0.00000000E+00  0.00000000E+00  0.00000000E+00
  0.00000000E+00  0.00000000E+00  0.00000000E+00
  0.00000000E+00  0.00000000E+00  0.00000000E+00
  0.00000000E+00  0.00000000E+00  0.00000000E+00
  0.00000000E+00  0.00000000E+00  0.00000000E+00
  0.00000000E+00  0.00000000E+00  0.00000000E+00
  0.00000000E+00  0.00000000E+00  0.00000000E+00
  0.00000000E+00  0.00000000E+00  0.00000000E+00
  0.00000000E+00  0.00000000E+00  0.00000000E+00
  0.00000000E+00  0.00000000E+00  0.00000000E+00
  0.00000000E+00  0.00000000E+00  0.00000000E+00
  0.00000000E+00  0.00000000E+00  0.00000000E+00
  0.00000000E+00  0.00000000E+00  0.00000000E+00
  0.00000000E+00  0.00000000E+00  0.00000000E+00
  0.00000000E+00  0.00000000E+00  0.00000000E+00
  0.00000000E+00  0.00000000E+00  0.00000000E+00
  0.00000000E+00  0.00000000E+00  0.00000000E+00
  0.00000000E+00  0.00000000E+00  0.00000000E+00
  0.00000000E+00  0.00000000E+00  0.00000000E+00
  0.00000000E+00  0.00000000E+00  0.00000000E+00
  0.00000000E+00  0.00000000E+00  0.00000000E+00
  0.00000000E+00  0.00000000E+00  0.00000000E+00
  0.00000000E+00  0.00000000E+00  0.00000000E+00
  0.00000000E+00  0.00000000E+00  0.00000000E+00
  0.00000000E+00  0.00000000E+00  0.00000000E+00
  0.00000000E+00  0.00000000E+00  0.00000000E+00
  0.00000000E+00  0.00000000E+00  0.00000000E+00
  0.00000000E+00  0.00000000E+00  0.00000000E+00
  0.00000000E+00  0.00000000E+00  0.00000000E+00
  0.00000000E+00  0.00000000E+00  0.00000000E+00
  0.00000000E+00  0.00000000E+00  0.00000000E+00
  0.00000000E+00  0.00000000E+00  0.00000000E+00
  0.00000000E+00  0.00000000E+00  0.00000000E+00
  0.00000000E+00  0.00000000E+00  0.00000000E+00
  0.00000000E+00  0.00000000E+00  0.00000000E+00
  0.00000000E+00  0.00000000E+00  0.00000000E+00
  0.00000000E+00  0.00000000E+00  0.00000000E+00
  0.00000000E+00  0.00000000E+00  0.00000000E+00
  0.00000000E+00  0.00000000E+00  0.00000000E+00
  0.00000000E+00  0.00000000E+00  0.00000000E+00
  0.00000000E+00  0.00000000E+00  0.00000000E+00
  0.00000000E+00  0.00000000E+00  0.00000000E+00
  0.00000000E+00  0.00000000E+00  0.00000000E+00
  0.00000000E+00  0.00000000E+00  0.00000000E+00
  0.00000000E+00  0.00000000E+00  0.00000000E+00
  0.00000000E+00  0.00000000E+00  0.00000000E+00
  0.00000000E+00  0.00000000E+00  0.00000000E+00
  0.00000000E+00  0.00000000E+00  0.00000000E+00
  0.00000000E+00  0.00000000E+00  0.00000000E+00
  0.00000000E+00  0.00000000E+00  0.00000000E+00
  0.00000000E+00  0.00000000E+00  0.00000000E+00
  0.00000000E+00  0.00000000E+00  0.00000000E+00
  0.00000000E+00  0.00000000E+00  0.00000000E+00
  0.00000000E+00  0.00000000E+00  0.00000000E+00
  0.00000000E+00  0.00000000E+00  0.00000000E+00
  0.00000000E+00  0.00000000E+00  0.00000000E+00
  0.00000000E+00  0.00000000E+00  0.00000000E+00
  0.00000000E+00  0.00000000E+00  0.00000000E+00
  0.00000000E+00  0.00000000E+00  0.00000000E+00
  0.00000000E+00  0.00000000E+00  0.00000000E+00
  0.00000000E+00  0.00000000E+00  0.00000000E+00
  0.00000000E+00  0.00000000E+00  0.00000000E+00
