CONTCAR\(6)                             
   1.00000000000000     
     4.8587999344000004    0.0000000000000000    0.0000000000000000
     2.4293999672000002    4.2078441751000000    0.0000000000000000
     0.0000000000000000    0.0000000000000000   39.1618995667000007
   Pt   O    H 
    15     2     4
Selective dynamics
Direct
  0.3333300050000005  0.0000100000000032  0.0255399999999995   F   F   F
  0.9999899860000028  0.6666700239999983  0.0255399999999995   F   F   F
  0.6666600109999976  0.3333399890000024  0.0255399999999995   F   F   F
  0.0000000000000000  0.0000000000000000  0.0840200040000028   F   F   F
  0.6666700239999983  0.6666700239999983  0.0840200040000028   F   F   F
  0.3333300050000005  0.3333300050000005  0.0840200040000028   F   F   F
  0.9989324458515921  0.3338653483597555  0.1419623286427669   T   T   T
  0.6655537283180016  0.0011272678982232  0.1419786116862800   T   T   T
  0.3323951070742159  0.6673318398929249  0.1419334165374744   T   T   T
  0.3335315718917014  0.9982616278434753  0.1998383421174081   T   T   T
  0.9943764090254380  0.6686689014783770  0.1997546309110449   T   T   T
  0.6640855836081697  0.3382493162046378  0.1999658003194509   T   T   T
  0.9951601437797862  0.0026339901359114  0.2578252813527114   T   T   T
  0.6616396348683117  0.6702566942719321  0.2606464006508941   T   T   T
  0.3277937470514630  0.3362789594894313  0.2574624274231334   T   T   T
  0.6613819523007547  0.6722503889109180  0.3199084750880947   T   T   T
  0.3159673022700615  0.3301015810688423  0.3410278381372112   T   T   T
  0.4287744548946314  0.4425428066462829  0.3339826366438170   T   T   T
  0.8878599993900086  0.5661550715186773  0.3275287196751355   T   T   T
  0.5546143400472435  0.8989315920509718  0.3274300658489080   T   T   T
  0.3174261162026615  0.3311317493367487  0.3660395178108063   T   T   T
 
  0.00000000E+00  0.00000000E+00  0.00000000E+00
  0.00000000E+00  0.00000000E+00  0.00000000E+00
  0.00000000E+00  0.00000000E+00  0.00000000E+00
  0.00000000E+00  0.00000000E+00  0.00000000E+00
  0.00000000E+00  0.00000000E+00  0.00000000E+00
  0.00000000E+00  0.00000000E+00  0.00000000E+00
  0.00000000E+00  0.00000000E+00  0.00000000E+00
  0.00000000E+00  0.00000000E+00  0.00000000E+00
  0.00000000E+00  0.00000000E+00  0.00000000E+00
  0.00000000E+00  0.00000000E+00  0.00000000E+00
  0.00000000E+00  0.00000000E+00  0.00000000E+00
  0.00000000E+00  0.00000000E+00  0.00000000E+00
  0.00000000E+00  0.00000000E+00  0.00000000E+00
  0.00000000E+00  0.00000000E+00  0.00000000E+00
  0.00000000E+00  0.00000000E+00  0.00000000E+00
  0.00000000E+00  0.00000000E+00  0.00000000E+00
  0.00000000E+00  0.00000000E+00  0.00000000E+00
  0.00000000E+00  0.00000000E+00  0.00000000E+00
  0.00000000E+00  0.00000000E+00  0.00000000E+00
  0.00000000E+00  0.00000000E+00  0.00000000E+00
  0.00000000E+00  0.00000000E+00  0.00000000E+00
