CONTCAR\(6)                             
   1.00000000000000     
     4.8587999344000004    0.0000000000000000    0.0000000000000000
     2.4293999672000002    4.2078441751000000    0.0000000000000000
     0.0000000000000000    0.0000000000000000   39.1618995667000007
   Pt   O    H 
    15     2     4
Selective dynamics
Direct
  0.3333300050000005  0.0000100000000032  0.0255399999999995   F   F   F
  0.9999899860000028  0.6666700239999983  0.0255399999999995   F   F   F
  0.6666600109999976  0.3333399890000024  0.0255399999999995   F   F   F
  0.0000000000000000  0.0000000000000000  0.0840200040000028   F   F   F
  0.6666700239999983  0.6666700239999983  0.0840200040000028   F   F   F
  0.3333300050000005  0.3333300050000005  0.0840200040000028   F   F   F
  0.9992363458599554  0.3339482689522401  0.1418463238795569   T   T   T
  0.6657213319898800  0.0010577043727047  0.1418366617683556   T   T   T
  0.3320700875668781  0.6675977129411189  0.1418312677012402   T   T   T
  0.3327669717125366 -0.0006578470979883  0.1995418889054885   T   T   T
  0.9949300748654728  0.6691170372763245  0.1995574621002941   T   T   T
  0.6643967628499066  0.3372423127986542  0.1995520862378033   T   T   T
  0.9946553408954385  0.0031085258113032  0.2578326503859309   T   T   T
  0.6606169649039554  0.6695804829768214  0.2596969802711973   T   T   T
  0.3280293560067530  0.3362855887135502  0.2574005133179539   T   T   T
  0.6545963141474752  0.6667577480524639  0.3219154768872891   T   T   T
  0.3172647795993674  0.3319656173240587  0.3415349718513572   T   T   T
  0.4280471364428963  0.4424121228831613  0.3328793375140145   T   T   T
  0.8842924208599372  0.5660076202493883  0.3276053233753913   T   T   T
  0.5533269966817805  0.8966371730229500  0.3274738497905917   T   T   T
  0.3261090835162206  0.3402928422508341  0.3664172365157897   T   T   T
 
  0.00000000E+00  0.00000000E+00  0.00000000E+00
  0.00000000E+00  0.00000000E+00  0.00000000E+00
  0.00000000E+00  0.00000000E+00  0.00000000E+00
  0.00000000E+00  0.00000000E+00  0.00000000E+00
  0.00000000E+00  0.00000000E+00  0.00000000E+00
  0.00000000E+00  0.00000000E+00  0.00000000E+00
  0.00000000E+00  0.00000000E+00  0.00000000E+00
  0.00000000E+00  0.00000000E+00  0.00000000E+00
  0.00000000E+00  0.00000000E+00  0.00000000E+00
  0.00000000E+00  0.00000000E+00  0.00000000E+00
  0.00000000E+00  0.00000000E+00  0.00000000E+00
  0.00000000E+00  0.00000000E+00  0.00000000E+00
  0.00000000E+00  0.00000000E+00  0.00000000E+00
  0.00000000E+00  0.00000000E+00  0.00000000E+00
  0.00000000E+00  0.00000000E+00  0.00000000E+00
  0.00000000E+00  0.00000000E+00  0.00000000E+00
  0.00000000E+00  0.00000000E+00  0.00000000E+00
  0.00000000E+00  0.00000000E+00  0.00000000E+00
  0.00000000E+00  0.00000000E+00  0.00000000E+00
  0.00000000E+00  0.00000000E+00  0.00000000E+00
  0.00000000E+00  0.00000000E+00  0.00000000E+00
