CONTCAR\(6)                             
   1.00000000000000     
     4.8587999344000004    0.0000000000000000    0.0000000000000000
     2.4293999672000002    4.2078441751000000    0.0000000000000000
     0.0000000000000000    0.0000000000000000   39.1618995667000007
   Pt
    15
Selective dynamics
Direct
  0.3333300050000005  0.0000100000000032  0.0255399999999995   F   F   F
  0.9999899860000028  0.6666700239999983  0.0255399999999995   F   F   F
  0.6666600109999976  0.3333399890000024  0.0255399999999995   F   F   F
  0.0000000000000000  0.0000000000000000  0.0840200040000028   F   F   F
  0.6666700239999983  0.6666700239999983  0.0840200040000028   F   F   F
  0.3333300050000005  0.3333300050000005  0.0840200040000028   F   F   F
  0.9990961629137445  0.3338980071143141  0.1418419373069639   T   T   T
  0.6655479745566169  0.0009188287633322  0.1418314874942510   T   T   T
  0.3320176607427001  0.6674565417607283  0.1418362292195425   T   T   T
  0.3313487932697399  0.0022540396558810  0.1997662282944006   T   T   T
  0.9975598430445700  0.6691974682271535  0.1997639672995177   T   T   T
  0.6644644749831414  0.3360673919767336  0.1997531659646867   T   T   T
  0.9967669444693072  0.0052758522588832  0.2588099230677088   T   T   T
  0.6635506104602840  0.6718337117423445  0.2588233812093819   T   T   T
  0.3301932526549720  0.3385546638395667  0.2588167437136093   T   T   T
 
  0.00000000E+00  0.00000000E+00  0.00000000E+00
  0.00000000E+00  0.00000000E+00  0.00000000E+00
  0.00000000E+00  0.00000000E+00  0.00000000E+00
  0.00000000E+00  0.00000000E+00  0.00000000E+00
  0.00000000E+00  0.00000000E+00  0.00000000E+00
  0.00000000E+00  0.00000000E+00  0.00000000E+00
  0.00000000E+00  0.00000000E+00  0.00000000E+00
  0.00000000E+00  0.00000000E+00  0.00000000E+00
  0.00000000E+00  0.00000000E+00  0.00000000E+00
  0.00000000E+00  0.00000000E+00  0.00000000E+00
  0.00000000E+00  0.00000000E+00  0.00000000E+00
  0.00000000E+00  0.00000000E+00  0.00000000E+00
  0.00000000E+00  0.00000000E+00  0.00000000E+00
  0.00000000E+00  0.00000000E+00  0.00000000E+00
  0.00000000E+00  0.00000000E+00  0.00000000E+00
