CONTCAR1\(1)                            
   1.00000000000000     
     4.8589000701999998    0.0000000000000000    0.0000000000000000
    -2.4294188376000001    7.0131310477000000    0.0000000000000000
     0.0000000000000000    0.0000000000000000   39.1618995667000007
   Pt
    25
Selective dynamics
Direct
  0.4666599930000004  0.6000000240000034  0.0255399999999995   F   F   F
  0.2666600049999985  0.2000000029999995  0.0255399999999995   F   F   F
  0.0666600019999990  0.8000000119999982  0.0255399999999995   F   F   F
  0.8666599989999995  0.4000000059999991  0.0255399999999995   F   F   F
  0.6666600109999976  0.0000000000000000  0.0255399999999995   F   F   F
  0.0000000000000000  0.0000000000000000  0.0840200040000028   F   F   F
  0.8000000119999982  0.6000000240000034  0.0840200040000028   F   F   F
  0.6000000240000034  0.2000000029999995  0.0840200040000028   F   F   F
  0.4000000059999991  0.8000000119999982  0.0840200040000028   F   F   F
  0.2000000029999995  0.4000000059999991  0.0840200040000028   F   F   F
  0.1297710435398839  0.5971808891803564  0.1418053041326471   T   T   T
  0.9296725993260420  0.1971256613564564  0.1418025324394893   T   T   T
  0.7297068539839334  0.7971425071306042  0.1417991358109165   T   T   T
  0.5298288895104407  0.3971537941847678  0.1417993114060918   T   T   T
  0.3296521368873598  0.9971099143970154  0.1417954039863947   T   T   T
  0.4575890270018925  0.5934720314254534  0.1995830719862614   T   T   T
  0.2575494416423859  0.1933565139689380  0.1995818645326789   T   T   T
  0.0576732184309444  0.7934057200105827  0.1995950711559105   T   T   T
  0.8576682960857678  0.3934213961709045  0.1995893710928701   T   T   T
  0.6577151168304728  0.9934283892463542  0.1995869576911571   T   T   T
  0.1855120978959593  0.3895031048263461  0.2586257034278805   T   T   T
  0.9852618042284718  0.9894210334786647  0.2586224952897268   T   T   T
  0.7853243866233203  0.5894388300369832  0.2586114903011945   T   T   T
  0.5853772992833851  0.1895683659639598  0.2586154198415123   T   T   T
  0.3853942207964749  0.7896248347059543  0.2586204648296105   T   T   T

  0.00000000E+00  0.00000000E+00  0.00000000E+00
  0.00000000E+00  0.00000000E+00  0.00000000E+00
  0.00000000E+00  0.00000000E+00  0.00000000E+00
  0.00000000E+00  0.00000000E+00  0.00000000E+00
  0.00000000E+00  0.00000000E+00  0.00000000E+00
  0.00000000E+00  0.00000000E+00  0.00000000E+00
  0.00000000E+00  0.00000000E+00  0.00000000E+00
  0.00000000E+00  0.00000000E+00  0.00000000E+00
  0.00000000E+00  0.00000000E+00  0.00000000E+00
  0.00000000E+00  0.00000000E+00  0.00000000E+00
  0.00000000E+00  0.00000000E+00  0.00000000E+00
  0.00000000E+00  0.00000000E+00  0.00000000E+00
  0.00000000E+00  0.00000000E+00  0.00000000E+00
  0.00000000E+00  0.00000000E+00  0.00000000E+00
  0.00000000E+00  0.00000000E+00  0.00000000E+00
  0.00000000E+00  0.00000000E+00  0.00000000E+00
  0.00000000E+00  0.00000000E+00  0.00000000E+00
  0.00000000E+00  0.00000000E+00  0.00000000E+00
  0.00000000E+00  0.00000000E+00  0.00000000E+00
  0.00000000E+00  0.00000000E+00  0.00000000E+00
  0.00000000E+00  0.00000000E+00  0.00000000E+00
  0.00000000E+00  0.00000000E+00  0.00000000E+00
  0.00000000E+00  0.00000000E+00  0.00000000E+00
  0.00000000E+00  0.00000000E+00  0.00000000E+00
  0.00000000E+00  0.00000000E+00  0.00000000E+00
