CONTCAR\(6)                             
   1.00000000000000     
     4.8587999344000004    0.0000000000000000    0.0000000000000000
     2.4293999672000002    4.2078441751000000    0.0000000000000000
     0.0000000000000000    0.0000000000000000   39.1618995667000007
   Pt   O    H 
    15     2     4
Selective dynamics
Direct
  0.3333300050000005  0.0000100000000032  0.0255399999999995   F   F   F
  0.9999899860000028  0.6666700239999983  0.0255399999999995   F   F   F
  0.6666600109999976  0.3333399890000024  0.0255399999999995   F   F   F
  0.0000000000000000  0.0000000000000000  0.0840200040000028   F   F   F
  0.6666700239999983  0.6666700239999983  0.0840200040000028   F   F   F
  0.3333300050000005  0.3333300050000005  0.0840200040000028   F   F   F
  0.9994456995098995  0.3325509825405477  0.1418040713869798   T   T   T
  0.6655615389776159  0.9994950044601053  0.1418085684734579   T   T   T
  0.3324716684253654  0.6656459172585941  0.1418106047224916   T   T   T
  0.3307709553017567  0.9978147706366431  0.1997038485340840   T   T   T
  0.9973035094745896  0.6646311069990782  0.1997067707635760   T   T   T
  0.6641513067995133  0.3312791771034501  0.1997024505346167   T   T   T
  0.9950432397772456  0.9961013794948814  0.2587250051472275   T   T   T
  0.6616358129618941  0.6628168919503138  0.2587713027367914   T   T   T
  0.3284217712717084  0.3294559355941006  0.2587909237108016   T   T   T
  0.6559477240814090  0.6641815986038675  0.3608944448400757   T   T   T
  0.3312685489655631  0.3399308911058170  0.3449808309061675   T   T   T
  0.4484086564689465  0.4571725003265764  0.3493379665833495   T   T   T
  0.8811427096748261  0.5638543208189953  0.3536868751761625   T   T   T
  0.5560718478982393  0.8891202835559716  0.3537010630718684   T   T   T
  0.3230065429998301  0.3312975269209559  0.3197281997823752   T   T   T
 
  0.00000000E+00  0.00000000E+00  0.00000000E+00
  0.00000000E+00  0.00000000E+00  0.00000000E+00
  0.00000000E+00  0.00000000E+00  0.00000000E+00
  0.00000000E+00  0.00000000E+00  0.00000000E+00
  0.00000000E+00  0.00000000E+00  0.00000000E+00
  0.00000000E+00  0.00000000E+00  0.00000000E+00
  0.00000000E+00  0.00000000E+00  0.00000000E+00
  0.00000000E+00  0.00000000E+00  0.00000000E+00
  0.00000000E+00  0.00000000E+00  0.00000000E+00
  0.00000000E+00  0.00000000E+00  0.00000000E+00
  0.00000000E+00  0.00000000E+00  0.00000000E+00
  0.00000000E+00  0.00000000E+00  0.00000000E+00
  0.00000000E+00  0.00000000E+00  0.00000000E+00
  0.00000000E+00  0.00000000E+00  0.00000000E+00
  0.00000000E+00  0.00000000E+00  0.00000000E+00
  0.00000000E+00  0.00000000E+00  0.00000000E+00
  0.00000000E+00  0.00000000E+00  0.00000000E+00
  0.00000000E+00  0.00000000E+00  0.00000000E+00
  0.00000000E+00  0.00000000E+00  0.00000000E+00
  0.00000000E+00  0.00000000E+00  0.00000000E+00
  0.00000000E+00  0.00000000E+00  0.00000000E+00
