CONTCAR\(6)                             
   1.00000000000000     
     4.8587999344000004    0.0000000000000000    0.0000000000000000
     2.4293999672000002    4.2078441751000000    0.0000000000000000
     0.0000000000000000    0.0000000000000000   39.1618995667000007
   Pt   O    H 
    15     2     4
Selective dynamics
Direct
  0.3333300050000005  0.0000100000000032  0.0255399999999995   F   F   F
  0.9999899860000028  0.6666700239999983  0.0255399999999995   F   F   F
  0.6666600109999976  0.3333399890000024  0.0255399999999995   F   F   F
  0.0000000000000000  0.0000000000000000  0.0840200040000028   F   F   F
  0.6666700239999983  0.6666700239999983  0.0840200040000028   F   F   F
  0.3333300050000005  0.3333300050000005  0.0840200040000028   F   F   F
  0.9993692331682098  0.3325355349031014  0.1417612942329711   T   T   T
  0.6656185694418326  0.9994163510518277  0.1417710934379599   T   T   T
  0.3324666366599445  0.6656961023885017  0.1417761538514526   T   T   T
  0.3308571437664085  0.9975510546813595  0.1995633593666355   T   T   T
  0.9970178047507545  0.6648320217663723  0.1995618038284448   T   T   T
  0.6643816109299578  0.3313788289552164  0.1995548619509009   T   T   T
  0.9950535406613525  0.9961462369427068  0.2585756320460249   T   T   T
  0.6616618815055446  0.6628160873764060  0.2587194227633560   T   T   T
  0.3284989433087873  0.3295257671954772  0.2584179715951862   T   T   T
  0.6528985812356964  0.6608901178995978  0.3594543791232638   T   T   T
  0.3313624463298126  0.3400485843140402  0.3450008228527821   T   T   T
  0.4485143444403121  0.4572319468934012  0.3496902034471603   T   T   T
  0.8822044111516689  0.5638509972836943  0.3544408086131625   T   T   T
  0.5559983513749103  0.8903158590267992  0.3544523745962564   T   T   T
  0.3247344487884334  0.3330943852070831  0.3198346866918200   T   T   T
 
  0.00000000E+00  0.00000000E+00  0.00000000E+00
  0.00000000E+00  0.00000000E+00  0.00000000E+00
  0.00000000E+00  0.00000000E+00  0.00000000E+00
  0.00000000E+00  0.00000000E+00  0.00000000E+00
  0.00000000E+00  0.00000000E+00  0.00000000E+00
  0.00000000E+00  0.00000000E+00  0.00000000E+00
  0.00000000E+00  0.00000000E+00  0.00000000E+00
  0.00000000E+00  0.00000000E+00  0.00000000E+00
  0.00000000E+00  0.00000000E+00  0.00000000E+00
  0.00000000E+00  0.00000000E+00  0.00000000E+00
  0.00000000E+00  0.00000000E+00  0.00000000E+00
  0.00000000E+00  0.00000000E+00  0.00000000E+00
  0.00000000E+00  0.00000000E+00  0.00000000E+00
  0.00000000E+00  0.00000000E+00  0.00000000E+00
  0.00000000E+00  0.00000000E+00  0.00000000E+00
  0.00000000E+00  0.00000000E+00  0.00000000E+00
  0.00000000E+00  0.00000000E+00  0.00000000E+00
  0.00000000E+00  0.00000000E+00  0.00000000E+00
  0.00000000E+00  0.00000000E+00  0.00000000E+00
  0.00000000E+00  0.00000000E+00  0.00000000E+00
  0.00000000E+00  0.00000000E+00  0.00000000E+00
