CONTCAR\(5)\(1\1\1)                     
   1.00000000000000     
     2.8052499294000000    0.0000000000000000    0.0000000000000000
    -1.4026249647000000    2.4294177027999999    0.0000000000000000
     0.0000000000000000    0.0000000000000000   39.1618995667000007
   Pt
     5
Selective dynamics
Direct
  0.6666600109999976  0.3333399890000024  0.0255399999999995   F   F   F
  0.0000000000000000  0.0000000000000000  0.0840200040000028   F   F   F
  0.3333316289193608  0.6666683710806391  0.1418702742520314   T   T   T
  0.6666691522969059  0.3333308477030939  0.1997444015484914   T   T   T
 -0.0000029457579752  0.0000029457579752  0.2587404576717713   T   T   T
 
  0.00000000E+00  0.00000000E+00  0.00000000E+00
  0.00000000E+00  0.00000000E+00  0.00000000E+00
  0.00000000E+00  0.00000000E+00  0.00000000E+00
  0.00000000E+00  0.00000000E+00  0.00000000E+00
  0.00000000E+00  0.00000000E+00  0.00000000E+00
