CONTCAR\(6)                             
   1.00000000000000     
     4.8587999344000004    0.0000000000000000    0.0000000000000000
     2.4293999672000002    4.2078441751000000    0.0000000000000000
     0.0000000000000000    0.0000000000000000   39.1618995667000007
   Pt   O    H 
    15     2     4
Selective dynamics
Direct
  0.3333300050000005  0.0000100000000032  0.0255399999999995   F   F   F
  0.9999899860000028  0.6666700239999983  0.0255399999999995   F   F   F
  0.6666600109999976  0.3333399890000024  0.0255399999999995   F   F   F
  0.0000000000000000  0.0000000000000000  0.0840200040000028   F   F   F
  0.6666700239999983  0.6666700239999983  0.0840200040000028   F   F   F
  0.3333300050000005  0.3333300050000005  0.0840200040000028   F   F   F
  0.9993679607740036  0.3325307858875486  0.1417580092788776   T   T   T
  0.6656081934808361  0.9994203660249779  0.1417669215746384   T   T   T
  0.3324586605250170  0.6656872396446106  0.1417714447554143   T   T   T
  0.3308539793756693  0.9975594856431194  0.1995658224353141   T   T   T
  0.9970277917378327  0.6648252754573972  0.1995644587094336   T   T   T
  0.6643719697066888  0.3313762900794099  0.1995573720980682   T   T   T
  0.9950692276650449  0.9961595479543864  0.2585713173115515   T   T   T
  0.6616773762198723  0.6628318306094602  0.2587146046029610   T   T   T
  0.3285156310695572  0.3295400541374230  0.2584171391361224   T   T   T
  0.6528099125871671  0.6609689503875631  0.3594518558865555   T   T   T
  0.3313500071241375  0.3400261998799626  0.3449902907044329   T   T   T
  0.4485820555603516  0.4572889384276606  0.3497120872751705   T   T   T
  0.8822292294222231  0.5638215660245985  0.3544457417295935   T   T   T
  0.5560094761665925  0.8902305992114750  0.3544593806698482   T   T   T
  0.3247223535967278  0.3330880183675879  0.3198569577588073   T   T   T
 
  0.00000000E+00  0.00000000E+00  0.00000000E+00
  0.00000000E+00  0.00000000E+00  0.00000000E+00
  0.00000000E+00  0.00000000E+00  0.00000000E+00
  0.00000000E+00  0.00000000E+00  0.00000000E+00
  0.00000000E+00  0.00000000E+00  0.00000000E+00
  0.00000000E+00  0.00000000E+00  0.00000000E+00
  0.00000000E+00  0.00000000E+00  0.00000000E+00
  0.00000000E+00  0.00000000E+00  0.00000000E+00
  0.00000000E+00  0.00000000E+00  0.00000000E+00
  0.00000000E+00  0.00000000E+00  0.00000000E+00
  0.00000000E+00  0.00000000E+00  0.00000000E+00
  0.00000000E+00  0.00000000E+00  0.00000000E+00
  0.00000000E+00  0.00000000E+00  0.00000000E+00
  0.00000000E+00  0.00000000E+00  0.00000000E+00
  0.00000000E+00  0.00000000E+00  0.00000000E+00
  0.00000000E+00  0.00000000E+00  0.00000000E+00
  0.00000000E+00  0.00000000E+00  0.00000000E+00
  0.00000000E+00  0.00000000E+00  0.00000000E+00
  0.00000000E+00  0.00000000E+00  0.00000000E+00
  0.00000000E+00  0.00000000E+00  0.00000000E+00
  0.00000000E+00  0.00000000E+00  0.00000000E+00
