CONTCAR\(6)                             
   1.00000000000000     
     4.8587999344000004    0.0000000000000000    0.0000000000000000
     2.4293999672000002    4.2078441751000000    0.0000000000000000
     0.0000000000000000    0.0000000000000000   39.1618995667000007
   Pt   O    H 
    15     2     4
Selective dynamics
Direct
  0.3333300050000005  0.0000100000000032  0.0255399999999995   F   F   F
  0.9999899860000028  0.6666700239999983  0.0255399999999995   F   F   F
  0.6666600109999976  0.3333399890000024  0.0255399999999995   F   F   F
  0.0000000000000000  0.0000000000000000  0.0840200040000028   F   F   F
  0.6666700239999983  0.6666700239999983  0.0840200040000028   F   F   F
  0.3333300050000005  0.3333300050000005  0.0840200040000028   F   F   F
  0.9991826026411096  0.3339489554364786  0.1418953212789035   T   T   T
  0.6656951618897304  0.0011177320920647  0.1418944478341909   T   T   T
  0.3321942693423360  0.6675199911297973  0.1418734047645614   T   T   T
  0.3331613692475956  0.9989567413239500  0.1996483321604812   T   T   T
  0.9947281610041878  0.6690061125923971  0.1996322432520031   T   T   T
  0.6643100575679839  0.3377812826452776  0.1996914445048142   T   T   T
  0.9948231847827137  0.0031614512421570  0.2577912129931994   T   T   T
  0.6610382182423390  0.6700806065477548  0.2602785642140996   T   T   T
  0.3280101893373821  0.3364143818893360  0.2573911478691184   T   T   T
  0.6570991685166278  0.6691291450692669  0.3207200163749993   T   T   T
  0.3166754798054500  0.3313856753294361  0.3412887259971061   T   T   T
  0.4279764496810118  0.4423865426055256  0.3330797811808323   T   T   T
  0.8844321199383426  0.5651741940858934  0.3277666148266580   T   T   T
  0.5524915989100742  0.8967858127506879  0.3276462903930794   T   T   T
  0.3242865455721684  0.3384463955342985  0.3662082768024120   T   T   T
 
  0.00000000E+00  0.00000000E+00  0.00000000E+00
  0.00000000E+00  0.00000000E+00  0.00000000E+00
  0.00000000E+00  0.00000000E+00  0.00000000E+00
  0.00000000E+00  0.00000000E+00  0.00000000E+00
  0.00000000E+00  0.00000000E+00  0.00000000E+00
  0.00000000E+00  0.00000000E+00  0.00000000E+00
  0.00000000E+00  0.00000000E+00  0.00000000E+00
  0.00000000E+00  0.00000000E+00  0.00000000E+00
  0.00000000E+00  0.00000000E+00  0.00000000E+00
  0.00000000E+00  0.00000000E+00  0.00000000E+00
  0.00000000E+00  0.00000000E+00  0.00000000E+00
  0.00000000E+00  0.00000000E+00  0.00000000E+00
  0.00000000E+00  0.00000000E+00  0.00000000E+00
  0.00000000E+00  0.00000000E+00  0.00000000E+00
  0.00000000E+00  0.00000000E+00  0.00000000E+00
  0.00000000E+00  0.00000000E+00  0.00000000E+00
  0.00000000E+00  0.00000000E+00  0.00000000E+00
  0.00000000E+00  0.00000000E+00  0.00000000E+00
  0.00000000E+00  0.00000000E+00  0.00000000E+00
  0.00000000E+00  0.00000000E+00  0.00000000E+00
  0.00000000E+00  0.00000000E+00  0.00000000E+00
