CONTCAR\(6)                             
   1.00000000000000     
     4.8587999344000004    0.0000000000000000    0.0000000000000000
     2.4293999672000002    4.2078441751000000    0.0000000000000000
     0.0000000000000000    0.0000000000000000   39.1618995667000007
   Pt   O    H 
    15     2     4
Selective dynamics
Direct
  0.3333300050000005  0.0000100000000032  0.0255399999999995   F   F   F
  0.9999899860000028  0.6666700239999983  0.0255399999999995   F   F   F
  0.6666600109999976  0.3333399890000024  0.0255399999999995   F   F   F
  0.0000000000000000  0.0000000000000000  0.0840200040000028   F   F   F
  0.6666700239999983  0.6666700239999983  0.0840200040000028   F   F   F
  0.3333300050000005  0.3333300050000005  0.0840200040000028   F   F   F
  0.9992417832878204  0.3339943659075719  0.1418678681257093   T   T   T
  0.6657266316059361  0.0010933750367109  0.1418507355601465   T   T   T
  0.3321040263422873  0.6675249363621211  0.1418542938326447   T   T   T
  0.3326219690731675  0.9998335872810767  0.1995577312943665   T   T   T
  0.9953331901888488  0.6691758204994211  0.1995763659526052   T   T   T
  0.6644859148746771  0.3370916328081585  0.1995636672142138   T   T   T
  0.9950954474832905  0.0034688116811450  0.2578861220211244   T   T   T
  0.6609492915785015  0.6700193276974267  0.2600300242833641   T   T   T
  0.3282899802657189  0.3368097059778826  0.2574508160699595   T   T   T
  0.6553270495898381  0.6676447712892862  0.3213828585936981   T   T   T
  0.3163326900207016  0.3311592372793908  0.3413207236619990   T   T   T
  0.4273187666013960  0.4418251831934674  0.3328907716320890   T   T   T
  0.8843117649916831  0.5654197435369317  0.3275709819119538   T   T   T
  0.5525804282949184  0.8967953009742342  0.3274428679209833   T   T   T
  0.3257952806554761  0.3400218922452604  0.3661971091503757   T   T   T
 
  0.00000000E+00  0.00000000E+00  0.00000000E+00
  0.00000000E+00  0.00000000E+00  0.00000000E+00
  0.00000000E+00  0.00000000E+00  0.00000000E+00
  0.00000000E+00  0.00000000E+00  0.00000000E+00
  0.00000000E+00  0.00000000E+00  0.00000000E+00
  0.00000000E+00  0.00000000E+00  0.00000000E+00
  0.00000000E+00  0.00000000E+00  0.00000000E+00
  0.00000000E+00  0.00000000E+00  0.00000000E+00
  0.00000000E+00  0.00000000E+00  0.00000000E+00
  0.00000000E+00  0.00000000E+00  0.00000000E+00
  0.00000000E+00  0.00000000E+00  0.00000000E+00
  0.00000000E+00  0.00000000E+00  0.00000000E+00
  0.00000000E+00  0.00000000E+00  0.00000000E+00
  0.00000000E+00  0.00000000E+00  0.00000000E+00
  0.00000000E+00  0.00000000E+00  0.00000000E+00
  0.00000000E+00  0.00000000E+00  0.00000000E+00
  0.00000000E+00  0.00000000E+00  0.00000000E+00
  0.00000000E+00  0.00000000E+00  0.00000000E+00
  0.00000000E+00  0.00000000E+00  0.00000000E+00
  0.00000000E+00  0.00000000E+00  0.00000000E+00
  0.00000000E+00  0.00000000E+00  0.00000000E+00
