Generated by VASPKIT code               
   1.00000000000000     
    16.8314990997000002    0.0000000000000000    0.0000000000000000
    -8.4157495498999992   14.5765058041000000    0.0000000000000000
     0.0000000000000000    0.0000000000000000   39.1618995667000007
   Pt   O    H 
   144     1     1
Selective dynamics
Direct
  0.0000000000000000  0.0000000000000000  0.0840200040000028   F   F   F
  0.0000000000000000  0.5000000000000000  0.0840200040000028   F   F   F
  0.5000000000000000  0.0000000000000000  0.0840200040000028   F   F   F
  0.5000000000000000  0.5000000000000000  0.0840200040000028   F   F   F
  0.0000000000000000  0.1666699949999995  0.0840200040000028   F   F   F
  0.0000000000000000  0.6666700239999983  0.0840200040000028   F   F   F
  0.5000000000000000  0.1666699949999995  0.0840200040000028   F   F   F
  0.5000000000000000  0.6666700239999983  0.0840200040000028   F   F   F
  0.0000000000000000  0.3333300050000005  0.0840200040000028   F   F   F
  0.0000000000000000  0.8333299760000017  0.0840200040000028   F   F   F
  0.5000000000000000  0.3333300050000005  0.0840200040000028   F   F   F
  0.5000000000000000  0.8333299760000017  0.0840200040000028   F   F   F
  0.1666699949999995  0.0000000000000000  0.0840200040000028   F   F   F
  0.1666699949999995  0.5000000000000000  0.0840200040000028   F   F   F
  0.6666700239999983  0.0000000000000000  0.0840200040000028   F   F   F
  0.6666700239999983  0.5000000000000000  0.0840200040000028   F   F   F
  0.1666699949999995  0.1666699949999995  0.0840200040000028   F   F   F
  0.1666699949999995  0.6666700239999983  0.0840200040000028   F   F   F
  0.6666700239999983  0.1666699949999995  0.0840200040000028   F   F   F
  0.6666700239999983  0.6666700239999983  0.0840200040000028   F   F   F
  0.1666699949999995  0.3333300050000005  0.0840200040000028   F   F   F
  0.1666699949999995  0.8333299760000017  0.0840200040000028   F   F   F
  0.6666700239999983  0.3333300050000005  0.0840200040000028   F   F   F
  0.6666700239999983  0.8333299760000017  0.0840200040000028   F   F   F
  0.3333300050000005  0.0000000000000000  0.0840200040000028   F   F   F
  0.3333300050000005  0.5000000000000000  0.0840200040000028   F   F   F
  0.8333299760000017  0.0000000000000000  0.0840200040000028   F   F   F
  0.8333299760000017  0.5000000000000000  0.0840200040000028   F   F   F
  0.3333300050000005  0.1666699949999995  0.0840200040000028   F   F   F
  0.3333300050000005  0.6666700239999983  0.0840200040000028   F   F   F
  0.8333299760000017  0.1666699949999995  0.0840200040000028   F   F   F
  0.8333299760000017  0.6666700239999983  0.0840200040000028   F   F   F
  0.3333300050000005  0.3333300050000005  0.0840200040000028   F   F   F
  0.3333300050000005  0.8333299760000017  0.0840200040000028   F   F   F
  0.8333299760000017  0.3333300050000005  0.0840200040000028   F   F   F
  0.8333299760000017  0.8333299760000017  0.0840200040000028   F   F   F
  0.0552087577646631  0.1103884822243691  0.1429238255207673   T   T   T
  0.0554610572222359  0.6112237991622813  0.1420515303006621   T   T   T
  0.5556572280002812  0.1112789455884508  0.1420543968636283   T   T   T
  0.5557985526189114  0.6112210548935422  0.1420521774596717   T   T   T
  0.0555933533739428  0.2772178092719649  0.1421079041161569   T   T   T
  0.0556186898933169  0.7782671684196147  0.1420661481087309   T   T   T
  0.5553038661821899  0.2776792153506898  0.1420022324802910   T   T   T
  0.5557499324384412  0.7778978391222569  0.1420971716500194   T   T   T
  0.0554408896096637  0.4441903470526119  0.1420576500184774   T   T   T
  0.0553081112994180  0.9447455046013319  0.1427941438928679   T   T   T
  0.5556054443459286  0.4444171030479909  0.1420717965857734   T   T   T
  0.5558495724298056  0.9446397145270061  0.1420566308760346   T   T   T
  0.2211001489070664  0.1105783492579328  0.1421656818720328   T   T   T
  0.2221288120287898  0.6110429083443883  0.1420764575038372   T   T   T
  0.7228938274661896  0.1110225680398766  0.1420715807187362   T   T   T
  0.7227164058519130  0.6116775600806459  0.1420125598657232   T   T   T
  0.2216587061462087  0.2772151158610581  0.1421114775791523   T   T   T
  0.2221800902239026  0.7779018270655789  0.1420996739372051   T   T   T
  0.7224137173760599  0.2776838856535547  0.1420041026183876   T   T   T
  0.7226702162525448  0.7782582644378431  0.1420664356632343   T   T   T
  0.2221221436324988  0.4442077932601015  0.1421121870186254   T   T   T
  0.2217829821087557  0.9444721816023566  0.1420925854616182   T   T   T
  0.7223457083098985  0.4446496090476260  0.1420066814069839   T   T   T
  0.7227088863264300  0.9444669652482719  0.1420902460718312   T   T   T
  0.3881580113798277  0.1110220764421567  0.1420710296442371   T   T   T
  0.3889488867217680  0.6110402618205373  0.1420751943220206   T   T   T
  0.8894966025498564  0.1105860750568182  0.1421480820837804   T   T   T
  0.8889923597373577  0.6116709412368333  0.1420080013015508   T   T   T
  0.3882021546676468  0.2772220496389697  0.1420703493932885   T   T   T
  0.3889821625823364  0.7779316496461836  0.1420726891614123   T   T   T
  0.8890528180586058  0.2772288206824113  0.1420683106949309   T   T   T
  0.8893256921280579  0.7786243297976472  0.1419591281916509   T   T   T
  0.3887869312207899  0.4441882634193248  0.1420583428485765   T   T   T
  0.3888232107978242  0.9446400547296295  0.1420571013477255   T   T   T
  0.8888556039190004  0.4444202302352361  0.1420738719135573   T   T   T
  0.8894528044276707  0.9447390852897520  0.1427817923203604   T   T   T
  0.1102456017911916  0.0550901847202536  0.2015558970110098   T   T   T
  0.1108883642374411  0.5555603486923522  0.1998610853173589   T   T   T
  0.6113943974310684  0.0560872784256628  0.1997791368490130   T   T   T
  0.6115161373593977  0.5556040888225602  0.1997921452804316   T   T   T
  0.1112885344759214  0.2224820143106940  0.2002510480928574   T   T   T
  0.1111474322157608  0.7221962469749572  0.1998346282366660   T   T   T
  0.6113316806529601  0.2225771118651586  0.1997945290978716   T   T   T
  0.6111187179866718  0.7221889584237909  0.1998337240119880   T   T   T
  0.1111188930183575  0.3891421373187509  0.1998488229738511   T   T   T
  0.1113392974731948  0.8889718586009508  0.2001610777708804   T   T   T
  0.6113642370665182  0.3889832310750669  0.1998103501264433   T   T   T
  0.6110687654520851  0.8890818762144040  0.1998423727549805   T   T   T
  0.2778077193406897  0.0557445032642777  0.1998260540226668   T   T   T
  0.2778654230079470  0.5556536219768191  0.1998652792270966   T   T   T
  0.7780236379095553  0.0557473891324626  0.1998177669517670   T   T   T
  0.7778949400153716  0.5557023761658330  0.1997600523561629   T   T   T
  0.2777845473929818  0.2222684032922718  0.1998349513305870   T   T   T
  0.2778606829768677  0.7223061154631003  0.1998566633621758   T   T   T
  0.7778852925585932  0.2224213687168732  0.1997944776306057   T   T   T
  0.7780440200497251  0.7224506586687157  0.1997002084847532   T   T   T
  0.2781093038722845  0.3891460063476830  0.1998485181736296   T   T   T
  0.2780896595625413  0.8890850973004911  0.1998435775158635   T   T   T
  0.7777032023327310  0.3889819456642777  0.1998118250218201   T   T   T
  0.7777055668961775  0.8889610633194015  0.2001530035700675   T   T   T
  0.4447767026410499  0.0560867569802550  0.1997775927457394   T   T   T
  0.4447509489561073  0.5555587154501611  0.1998614152549185   T   T   T
  0.9449191794914763  0.0550810540506262  0.2015204762431524   T   T   T
  0.9441733328111039  0.5556133246007905  0.1997899047513049   T   T   T
  0.4446237069058000  0.2224213699889505  0.1997934517530735   T   T   T
  0.4445174585318919  0.7223036898238012  0.1998549826497643   T   T   T
  0.9445683795776381  0.2222542797409278  0.1998252230367506   T   T   T
  0.9444915846838474  0.7224606409651636  0.1996980005260473   T   T   T
  0.4448186026311803  0.3889057242394386  0.1997875083233924   T   T   T
  0.4446912385552230  0.8893072311987065  0.1998630555943315   T   T   T
  0.9441719083518572  0.3888969861924322  0.1997877603004015   T   T   T
  0.9447365485751462  0.8894045296020634  0.2010636857013191   T   T   T
  0.0011819740959042  0.0019344572685858  0.2618721088119266   T   T   T
  0.0002464417145004  0.5005289619836667  0.2580783471011850   T   T   T
  0.5001174221917716  0.0000846844834154  0.2581100106854724   T   T   T
  0.5004176322362089  0.5005460703378098  0.2580841690699711   T   T   T
  0.0002993658692417  0.1692724975663030  0.2580576733658390   T   T   T
  0.0002306754057152  0.6665228865870273  0.2578654469025405   T   T   T
  0.5004367879976123  0.1670039920408218  0.2579376196758549   T   T   T
  0.4999363964258376  0.6668170426876013  0.2580232917526775   T   T   T
  0.0002443205291862  0.3346932388134126  0.2579195969187685   T   T   T
  0.0002775705139264  0.8323699385002751  0.2579406355697478   T   T   T
  0.5005639036636765  0.3338924500855686  0.2579470091754711   T   T   T
  0.4997931174351312  0.8333568733860729  0.2580197649081686   T   T   T
  0.1687438412827036  0.0005597691623629  0.2580790014383185   T   T   T
  0.1670083523811450  0.5007401132502878  0.2580219574500223   T   T   T
  0.6661196172619367  0.0002557056133661  0.2578512115144809   T   T   T
  0.6668814191855085  0.5002079346676741  0.2579531128967125   T   T   T
  0.1691509785286759  0.1692917043191790  0.2580790189888226   T   T   T
  0.1669947353905336  0.6668103775516419  0.2580241355824320   T   T   T
  0.6667150743388340  0.1670040555934668  0.2579394387261761   T   T   T
  0.6664359995035191  0.6665388903613014  0.2578590618516364   T   T   T
  0.1675236040385268  0.3349184774953083  0.2579899872781792   T   T   T
  0.1673091347004822  0.8332176284328270  0.2579588228917959   T   T   T
  0.6668642393045073  0.3336038610987691  0.2579965576354158   T   T   T
  0.6660572913956584  0.8332289439095856  0.2579493644696434   T   T   T
  0.3342974828515941  0.0002562739174657  0.2578563305314277   T   T   T
  0.3338565132965957  0.5007484295396204  0.2580218658974172   T   T   T
  0.8320399719743919  0.0005677142391177  0.2580489289819939   T   T   T
  0.8334563427428574  0.5001991490878006  0.2579523274159924   T   T   T
  0.3344032801196307  0.1674600181620656  0.2579731231853520   T   T   T
  0.3334866921820552  0.6668649014854723  0.2580342524144442   T   T   T
  0.8332153811657219  0.1674480163318505  0.2579681123798007   T   T   T
  0.8333901564970267  0.6666271344068389  0.2579068425822180   T   T   T
  0.3345937752404709  0.3347097078798143  0.2579184060223974   T   T   T
  0.3336941883830652  0.8333580006212207  0.2580207408786866   T   T   T
  0.8334571947014129  0.3338833812491191  0.2579479080986773   T   T   T
  0.8322946594190080  0.8324047893779667  0.2579267999691285   T   T   T
  0.0001964240909048  0.0009171911305510  0.3123553002942869   T   T   T
  0.9707483870995746  0.9363546053252541  0.3192561855699823   T   T   T
 
  0.00000000E+00  0.00000000E+00  0.00000000E+00
  0.00000000E+00  0.00000000E+00  0.00000000E+00
  0.00000000E+00  0.00000000E+00  0.00000000E+00
  0.00000000E+00  0.00000000E+00  0.00000000E+00
  0.00000000E+00  0.00000000E+00  0.00000000E+00
  0.00000000E+00  0.00000000E+00  0.00000000E+00
  0.00000000E+00  0.00000000E+00  0.00000000E+00
  0.00000000E+00  0.00000000E+00  0.00000000E+00
  0.00000000E+00  0.00000000E+00  0.00000000E+00
  0.00000000E+00  0.00000000E+00  0.00000000E+00
  0.00000000E+00  0.00000000E+00  0.00000000E+00
  0.00000000E+00  0.00000000E+00  0.00000000E+00
  0.00000000E+00  0.00000000E+00  0.00000000E+00
  0.00000000E+00  0.00000000E+00  0.00000000E+00
  0.00000000E+00  0.00000000E+00  0.00000000E+00
  0.00000000E+00  0.00000000E+00  0.00000000E+00
  0.00000000E+00  0.00000000E+00  0.00000000E+00
  0.00000000E+00  0.00000000E+00  0.00000000E+00
  0.00000000E+00  0.00000000E+00  0.00000000E+00
  0.00000000E+00  0.00000000E+00  0.00000000E+00
  0.00000000E+00  0.00000000E+00  0.00000000E+00
  0.00000000E+00  0.00000000E+00  0.00000000E+00
  0.00000000E+00  0.00000000E+00  0.00000000E+00
  0.00000000E+00  0.00000000E+00  0.00000000E+00
  0.00000000E+00  0.00000000E+00  0.00000000E+00
  0.00000000E+00  0.00000000E+00  0.00000000E+00
  0.00000000E+00  0.00000000E+00  0.00000000E+00
  0.00000000E+00  0.00000000E+00  0.00000000E+00
  0.00000000E+00  0.00000000E+00  0.00000000E+00
  0.00000000E+00  0.00000000E+00  0.00000000E+00
  0.00000000E+00  0.00000000E+00  0.00000000E+00
  0.00000000E+00  0.00000000E+00  0.00000000E+00
  0.00000000E+00  0.00000000E+00  0.00000000E+00
  0.00000000E+00  0.00000000E+00  0.00000000E+00
  0.00000000E+00  0.00000000E+00  0.00000000E+00
  0.00000000E+00  0.00000000E+00  0.00000000E+00
  0.00000000E+00  0.00000000E+00  0.00000000E+00
  0.00000000E+00  0.00000000E+00  0.00000000E+00
  0.00000000E+00  0.00000000E+00  0.00000000E+00
  0.00000000E+00  0.00000000E+00  0.00000000E+00
  0.00000000E+00  0.00000000E+00  0.00000000E+00
  0.00000000E+00  0.00000000E+00  0.00000000E+00
  0.00000000E+00  0.00000000E+00  0.00000000E+00
  0.00000000E+00  0.00000000E+00  0.00000000E+00
  0.00000000E+00  0.00000000E+00  0.00000000E+00
  0.00000000E+00  0.00000000E+00  0.00000000E+00
  0.00000000E+00  0.00000000E+00  0.00000000E+00
  0.00000000E+00  0.00000000E+00  0.00000000E+00
  0.00000000E+00  0.00000000E+00  0.00000000E+00
  0.00000000E+00  0.00000000E+00  0.00000000E+00
  0.00000000E+00  0.00000000E+00  0.00000000E+00
  0.00000000E+00  0.00000000E+00  0.00000000E+00
  0.00000000E+00  0.00000000E+00  0.00000000E+00
  0.00000000E+00  0.00000000E+00  0.00000000E+00
  0.00000000E+00  0.00000000E+00  0.00000000E+00
  0.00000000E+00  0.00000000E+00  0.00000000E+00
  0.00000000E+00  0.00000000E+00  0.00000000E+00
  0.00000000E+00  0.00000000E+00  0.00000000E+00
  0.00000000E+00  0.00000000E+00  0.00000000E+00
  0.00000000E+00  0.00000000E+00  0.00000000E+00
  0.00000000E+00  0.00000000E+00  0.00000000E+00
  0.00000000E+00  0.00000000E+00  0.00000000E+00
  0.00000000E+00  0.00000000E+00  0.00000000E+00
  0.00000000E+00  0.00000000E+00  0.00000000E+00
  0.00000000E+00  0.00000000E+00  0.00000000E+00
  0.00000000E+00  0.00000000E+00  0.00000000E+00
  0.00000000E+00  0.00000000E+00  0.00000000E+00
  0.00000000E+00  0.00000000E+00  0.00000000E+00
  0.00000000E+00  0.00000000E+00  0.00000000E+00
  0.00000000E+00  0.00000000E+00  0.00000000E+00
  0.00000000E+00  0.00000000E+00  0.00000000E+00
  0.00000000E+00  0.00000000E+00  0.00000000E+00
  0.00000000E+00  0.00000000E+00  0.00000000E+00
  0.00000000E+00  0.00000000E+00  0.00000000E+00
  0.00000000E+00  0.00000000E+00  0.00000000E+00
  0.00000000E+00  0.00000000E+00  0.00000000E+00
  0.00000000E+00  0.00000000E+00  0.00000000E+00
  0.00000000E+00  0.00000000E+00  0.00000000E+00
  0.00000000E+00  0.00000000E+00  0.00000000E+00
  0.00000000E+00  0.00000000E+00  0.00000000E+00
  0.00000000E+00  0.00000000E+00  0.00000000E+00
  0.00000000E+00  0.00000000E+00  0.00000000E+00
  0.00000000E+00  0.00000000E+00  0.00000000E+00
  0.00000000E+00  0.00000000E+00  0.00000000E+00
  0.00000000E+00  0.00000000E+00  0.00000000E+00
  0.00000000E+00  0.00000000E+00  0.00000000E+00
  0.00000000E+00  0.00000000E+00  0.00000000E+00
  0.00000000E+00  0.00000000E+00  0.00000000E+00
  0.00000000E+00  0.00000000E+00  0.00000000E+00
  0.00000000E+00  0.00000000E+00  0.00000000E+00
  0.00000000E+00  0.00000000E+00  0.00000000E+00
  0.00000000E+00  0.00000000E+00  0.00000000E+00
  0.00000000E+00  0.00000000E+00  0.00000000E+00
  0.00000000E+00  0.00000000E+00  0.00000000E+00
  0.00000000E+00  0.00000000E+00  0.00000000E+00
  0.00000000E+00  0.00000000E+00  0.00000000E+00
  0.00000000E+00  0.00000000E+00  0.00000000E+00
  0.00000000E+00  0.00000000E+00  0.00000000E+00
  0.00000000E+00  0.00000000E+00  0.00000000E+00
  0.00000000E+00  0.00000000E+00  0.00000000E+00
  0.00000000E+00  0.00000000E+00  0.00000000E+00
  0.00000000E+00  0.00000000E+00  0.00000000E+00
  0.00000000E+00  0.00000000E+00  0.00000000E+00
  0.00000000E+00  0.00000000E+00  0.00000000E+00
  0.00000000E+00  0.00000000E+00  0.00000000E+00
  0.00000000E+00  0.00000000E+00  0.00000000E+00
  0.00000000E+00  0.00000000E+00  0.00000000E+00
  0.00000000E+00  0.00000000E+00  0.00000000E+00
  0.00000000E+00  0.00000000E+00  0.00000000E+00
  0.00000000E+00  0.00000000E+00  0.00000000E+00
  0.00000000E+00  0.00000000E+00  0.00000000E+00
  0.00000000E+00  0.00000000E+00  0.00000000E+00
  0.00000000E+00  0.00000000E+00  0.00000000E+00
  0.00000000E+00  0.00000000E+00  0.00000000E+00
  0.00000000E+00  0.00000000E+00  0.00000000E+00
  0.00000000E+00  0.00000000E+00  0.00000000E+00
  0.00000000E+00  0.00000000E+00  0.00000000E+00
  0.00000000E+00  0.00000000E+00  0.00000000E+00
  0.00000000E+00  0.00000000E+00  0.00000000E+00
  0.00000000E+00  0.00000000E+00  0.00000000E+00
  0.00000000E+00  0.00000000E+00  0.00000000E+00
  0.00000000E+00  0.00000000E+00  0.00000000E+00
  0.00000000E+00  0.00000000E+00  0.00000000E+00
  0.00000000E+00  0.00000000E+00  0.00000000E+00
  0.00000000E+00  0.00000000E+00  0.00000000E+00
  0.00000000E+00  0.00000000E+00  0.00000000E+00
  0.00000000E+00  0.00000000E+00  0.00000000E+00
  0.00000000E+00  0.00000000E+00  0.00000000E+00
  0.00000000E+00  0.00000000E+00  0.00000000E+00
  0.00000000E+00  0.00000000E+00  0.00000000E+00
  0.00000000E+00  0.00000000E+00  0.00000000E+00
  0.00000000E+00  0.00000000E+00  0.00000000E+00
  0.00000000E+00  0.00000000E+00  0.00000000E+00
  0.00000000E+00  0.00000000E+00  0.00000000E+00
  0.00000000E+00  0.00000000E+00  0.00000000E+00
  0.00000000E+00  0.00000000E+00  0.00000000E+00
  0.00000000E+00  0.00000000E+00  0.00000000E+00
  0.00000000E+00  0.00000000E+00  0.00000000E+00
  0.00000000E+00  0.00000000E+00  0.00000000E+00
  0.00000000E+00  0.00000000E+00  0.00000000E+00
  0.00000000E+00  0.00000000E+00  0.00000000E+00
  0.00000000E+00  0.00000000E+00  0.00000000E+00
  0.00000000E+00  0.00000000E+00  0.00000000E+00
  0.00000000E+00  0.00000000E+00  0.00000000E+00
  0.00000000E+00  0.00000000E+00  0.00000000E+00
  0.00000000E+00  0.00000000E+00  0.00000000E+00
