Generated by VASPKIT code               
   1.00000000000000     
    16.8314990997000002    0.0000000000000000    0.0000000000000000
    -8.4157495498999992   14.5765058041000000    0.0000000000000000
     0.0000000000000000    0.0000000000000000   39.1618995667000007
   Pt
   144
Selective dynamics
Direct
  0.0000000000000000  0.0000000000000000  0.0840200040000028   F   F   F
  0.0000000000000000  0.5000000000000000  0.0840200040000028   F   F   F
  0.5000000000000000  0.0000000000000000  0.0840200040000028   F   F   F
  0.5000000000000000  0.5000000000000000  0.0840200040000028   F   F   F
  0.0000000000000000  0.1666664930000010  0.0840200040000028   F   F   F
  0.0000000000000000  0.6666665079999987  0.0840200040000028   F   F   F
  0.5000000000000000  0.1666664930000010  0.0840200040000028   F   F   F
  0.5000000000000000  0.6666665079999987  0.0840200040000028   F   F   F
  0.0000000000000000  0.3333334920000013  0.0840200040000028   F   F   F
  0.0000000000000000  0.8333334920000013  0.0840200040000028   F   F   F
  0.5000000000000000  0.3333334920000013  0.0840200040000028   F   F   F
  0.5000000000000000  0.8333334920000013  0.0840200040000028   F   F   F
  0.1666664930000010  0.0000000000000000  0.0840200040000028   F   F   F
  0.1666664930000010  0.5000000000000000  0.0840200040000028   F   F   F
  0.6666665079999987  0.0000000000000000  0.0840200040000028   F   F   F
  0.6666665079999987  0.5000000000000000  0.0840200040000028   F   F   F
  0.1666664930000010  0.1666664930000010  0.0840200040000028   F   F   F
  0.1666664930000010  0.6666665079999987  0.0840200040000028   F   F   F
  0.6666665079999987  0.1666664930000010  0.0840200040000028   F   F   F
  0.6666665079999987  0.6666665079999987  0.0840200040000028   F   F   F
  0.1666664930000010  0.3333334920000013  0.0840200040000028   F   F   F
  0.1666664930000010  0.8333334920000013  0.0840200040000028   F   F   F
  0.6666665079999987  0.3333334920000013  0.0840200040000028   F   F   F
  0.6666665079999987  0.8333334920000013  0.0840200040000028   F   F   F
  0.3333334920000013  0.0000000000000000  0.0840200040000028   F   F   F
  0.3333334920000013  0.5000000000000000  0.0840200040000028   F   F   F
  0.8333334920000013  0.0000000000000000  0.0840200040000028   F   F   F
  0.8333334920000013  0.5000000000000000  0.0840200040000028   F   F   F
  0.3333334920000013  0.1666664930000010  0.0840200040000028   F   F   F
  0.3333334920000013  0.6666665079999987  0.0840200040000028   F   F   F
  0.8333334920000013  0.1666664930000010  0.0840200040000028   F   F   F
  0.8333334920000013  0.6666665079999987  0.0840200040000028   F   F   F
  0.3333334920000013  0.3333334920000013  0.0840200040000028   F   F   F
  0.3333334920000013  0.8333334920000013  0.0840200040000028   F   F   F
  0.8333334920000013  0.3333334920000013  0.0840200040000028   F   F   F
  0.8333334920000013  0.8333334920000013  0.0840200040000028   F   F   F
  0.0555562164780521  0.1111106030276796  0.1421207939959412   T   T   T
  0.0555559964988603  0.6111110204675426  0.1421210130605066   T   T   T
  0.5555556750187993  0.1111107401318023  0.1421203734948655   T   T   T
  0.5555561072327960  0.6111106123631763  0.1421197152677333   T   T   T
  0.0555563824634501  0.2777777101903695  0.1421210346149765   T   T   T
  0.0555556974369383  0.7777771303503681  0.1421207853263554   T   T   T
  0.5555558527666096  0.2777778392872999  0.1421195258770155   T   T   T
  0.5555558355665540  0.7777768724704626  0.1421204245041223   T   T   T
  0.0555563074578043  0.4444446000155563  0.1421211111029080   T   T   T
  0.0555558282776291  0.9444436255141168  0.1421206582875762   T   T   T
  0.5555560303130590  0.4444444335409085  0.1421192820863295   T   T   T
  0.5555556079618282  0.9444435945262006  0.1421208376449214   T   T   T
  0.2222230898886399  0.1111108929901395  0.1421202154380983   T   T   T
  0.2222230329447414  0.6111110041584537  0.1421209798417500   T   T   T
  0.7222221844869280  0.1111104266022234  0.1421208896017270   T   T   T
  0.7222223304192565  0.6111106163687057  0.1421197092967920   T   T   T
  0.2222233517368163  0.2777778100024217  0.1421202809023101   T   T   T
  0.2222226069117172  0.7777773215085383  0.1421209600271327   T   T   T
  0.7222222281965124  0.2777776946673793  0.1421201964119938   T   T   T
  0.7222222194840923  0.7777766669261066  0.1421202207908546   T   T   T
  0.2222233293497359  0.4444445382165444  0.1421206776497855   T   T   T
  0.2222226462704689  0.9444439334405373  0.1421205878727283   T   T   T
  0.7222222946849728  0.4444444841765562  0.1421196494577191   T   T   T
  0.7222221396360218  0.9444432722280912  0.1421208573306378   T   T   T
  0.3888894480774797  0.1111109174826011  0.1421200421703031   T   T   T
  0.3888897422712584  0.6111107549756599  0.1421203547636507   T   T   T
  0.8888890680114330  0.1111103146396288  0.1421211411457932   T   T   T
  0.8888889473225524  0.6111107647294037  0.1421203802338329   T   T   T
  0.3888897516316476  0.2777778297383437  0.1421195612113214   T   T   T
  0.3888893144335275  0.7777771468007394  0.1421207948905933   T   T   T
  0.8888891507573510  0.2777775965485881  0.1421209866499300   T   T   T
  0.8888887832216521  0.7777767412932943  0.1421204285700716   T   T   T
  0.3888898698145962  0.4444443708926228  0.1421197822799894   T   T   T
  0.3888891559967039  0.9444438723888818  0.1421207223421997   T   T   T
  0.8888891185778808  0.4444445437117028  0.1421205965609037   T   T   T
  0.8888888837701160  0.9444432408966910  0.1421208073179086   T   T   T
  0.1111100747120533  0.0555553442456429  0.1999597015434964   T   T   T
  0.1111111190868415  0.5555566421671672  0.1999602107257591   T   T   T
  0.6111104770855559  0.0555550397612210  0.1999598266452438   T   T   T
  0.6111111444912477  0.5555570392751213  0.1999586585643467   T   T   T
  0.1111099255688423  0.2222229711945417  0.1999597794431497   T   T   T
  0.1111112259398256  0.7222224319825261  0.1999601906694310   T   T   T
  0.6111110451465860  0.2222216717538736  0.1999592436317461   T   T   T
  0.6111106187924803  0.7222237527160384  0.1999591490079843   T   T   T
  0.1111103930696876  0.3888900843784675  0.1999600232536591   T   T   T
  0.1111106579882113  0.8888882716194426  0.1999599309611621   T   T   T
  0.6111112838167760  0.3888894246214145  0.1999586785764065   T   T   T
  0.6111102215838780  0.8888895259761127  0.1999597446646381   T   T   T
  0.2777766552518858  0.0555543853022972  0.1999595934230086   T   T   T
  0.2777763888913987  0.5555566247245222  0.1999598213987884   T   T   T
  0.7777772690992361  0.0555559187683783  0.1999599442800115   T   T   T
  0.7777790742975592  0.5555569789870589  0.1999590597283847   T   T   T
  0.2777762831576348  0.2222221401383102  0.1999592480862908   T   T   T
  0.2777767682356304  0.7222225437383526  0.1999601955445293   T   T   T
  0.7777780594482961  0.2222224067834614  0.1999598000897542   T   T   T
  0.7777783069388071  0.7222235889616430  0.1999591907482768   T   T   T
  0.2777760761623446  0.3888897298921848  0.1999593758082169   T   T   T
  0.2777768406456612  0.8888878894017730  0.1999600813388783   T   T   T
  0.7777789346987486  0.3888896571594659  0.1999593072522743   T   T   T
  0.7777773760971384  0.8888898127160917  0.1999595997174575   T   T   T
  0.4444435021140664  0.0555542256492871  0.1999596505301401   T   T   T
  0.4444431446418680  0.5555568055900635  0.1999590350974534   T   T   T
  0.9444436910483374  0.0555560609225055  0.1999598795191425   T   T   T
  0.9444457809119675  0.5555567661801478  0.1999598150076790   T   T   T
  0.4444435164894198  0.2222215184819055  0.1999589886209990   T   T   T
  0.4444431476237514  0.7222231920357759  0.1999596714386637   T   T   T
  0.9444441720373821  0.2222230486315517  0.1999600654235323   T   T   T
  0.9444452675222145  0.7222229134861444  0.1999597069603164   T   T   T
  0.4444432533524821  0.3888894100043396  0.1999587081698727   T   T   T
  0.4444432540568301  0.8888885413614874  0.1999600098125320   T   T   T
  0.9444451621473146  0.3888899725299244  0.1999599940776392   T   T   T
  0.9444442132408455  0.8888891782970990  0.1999596925839452   T   T   T
 -0.0000008014452149 -0.0000000269201348  0.2580560134120141   T   T   T
  0.0000011681168569  0.5000009818407209  0.2580549065192683   T   T   T
  0.4999994070377400 -0.0000012057552155  0.2580555419816810   T   T   T
  0.4999992821309187  0.5000011500386886  0.2580575668290941   T   T   T
 -0.0000007332945934  0.1666669819404451  0.2580556414310829   T   T   T
  0.0000012290394094  0.6666673904856573  0.2580549669128475   T   T   T
  0.4999994000356738  0.1666650876849237  0.2580571115533740   T   T   T
  0.4999992073579685  0.6666680475061046  0.2580561864533561   T   T   T
  0.0000002279669627  0.3333340213781362  0.2580551447255668   T   T   T
  0.0000002152934744  0.8333334320394941  0.2580555753950770   T   T   T
  0.4999993303641871  0.3333331865050396  0.2580580702973182   T   T   T
  0.4999992918131475  0.8333338066929599  0.2580551137878798   T   T   T
  0.1666655581077264 -0.0000011308128477  0.2580561493977863   T   T   T
  0.1666659005343084  0.5000008022779978  0.2580547035402275   T   T   T
  0.6666664680924632 -0.0000000609619004  0.2580553739827237   T   T   T
  0.6666677099086568  0.5000013703738219  0.2580576917383377   T   T   T
  0.1666649996282720  0.1666664178103197  0.2580565314731402   T   T   T
  0.1666664766374860  0.6666669304273963  0.2580542120889396   T   T   T
  0.6666669331187906  0.1666656899825727  0.2580562677782635   T   T   T
  0.6666672045989868  0.6666685225647629  0.2580568914300597   T   T   T
  0.1666651954794113  0.3333339719726992  0.2580557372000795   T   T   T
  0.1666663090432889  0.8333325598129886  0.2580548519662848   T   T   T
  0.6666675025899199  0.3333332805555523  0.2580575227778659   T   T   T
  0.6666665567439813  0.8333346962439853  0.2580557963103737   T   T   T
  0.3333323215187690 -0.0000017818444495  0.2580558699355462   T   T   T
  0.3333316419293678  0.5000008395169284  0.2580560602781747   T   T   T
  0.8333330361642040  0.0000004982633432  0.2580555762625243   T   T   T
  0.8333353479169729  0.5000012636565613  0.2580563993835323   T   T   T
  0.3333318232605952  0.1666654172868382  0.2580572123023621   T   T   T
  0.3333320931120183  0.6666672158651541  0.2580547875808100   T   T   T
  0.8333336074539598  0.1666665666039037  0.2580554890644798   T   T   T
  0.8333348583466564  0.6666681684159118  0.2580562870310469   T   T   T
  0.3333315188819416  0.3333335409869772  0.2580572260577473   T   T   T
  0.3333324548066491  0.8333327038945310  0.2580546000884343   T   T   T
  0.8333347112391890  0.3333336588968861  0.2580560517104789   T   T   T
  0.8333336411825000  0.8333344809737386  0.2580560110635710   T   T   T
 
  0.00000000E+00  0.00000000E+00  0.00000000E+00
  0.00000000E+00  0.00000000E+00  0.00000000E+00
  0.00000000E+00  0.00000000E+00  0.00000000E+00
  0.00000000E+00  0.00000000E+00  0.00000000E+00
  0.00000000E+00  0.00000000E+00  0.00000000E+00
  0.00000000E+00  0.00000000E+00  0.00000000E+00
  0.00000000E+00  0.00000000E+00  0.00000000E+00
  0.00000000E+00  0.00000000E+00  0.00000000E+00
  0.00000000E+00  0.00000000E+00  0.00000000E+00
  0.00000000E+00  0.00000000E+00  0.00000000E+00
  0.00000000E+00  0.00000000E+00  0.00000000E+00
  0.00000000E+00  0.00000000E+00  0.00000000E+00
  0.00000000E+00  0.00000000E+00  0.00000000E+00
  0.00000000E+00  0.00000000E+00  0.00000000E+00
  0.00000000E+00  0.00000000E+00  0.00000000E+00
  0.00000000E+00  0.00000000E+00  0.00000000E+00
  0.00000000E+00  0.00000000E+00  0.00000000E+00
  0.00000000E+00  0.00000000E+00  0.00000000E+00
  0.00000000E+00  0.00000000E+00  0.00000000E+00
  0.00000000E+00  0.00000000E+00  0.00000000E+00
  0.00000000E+00  0.00000000E+00  0.00000000E+00
  0.00000000E+00  0.00000000E+00  0.00000000E+00
  0.00000000E+00  0.00000000E+00  0.00000000E+00
  0.00000000E+00  0.00000000E+00  0.00000000E+00
  0.00000000E+00  0.00000000E+00  0.00000000E+00
  0.00000000E+00  0.00000000E+00  0.00000000E+00
  0.00000000E+00  0.00000000E+00  0.00000000E+00
  0.00000000E+00  0.00000000E+00  0.00000000E+00
  0.00000000E+00  0.00000000E+00  0.00000000E+00
  0.00000000E+00  0.00000000E+00  0.00000000E+00
  0.00000000E+00  0.00000000E+00  0.00000000E+00
  0.00000000E+00  0.00000000E+00  0.00000000E+00
  0.00000000E+00  0.00000000E+00  0.00000000E+00
  0.00000000E+00  0.00000000E+00  0.00000000E+00
  0.00000000E+00  0.00000000E+00  0.00000000E+00
  0.00000000E+00  0.00000000E+00  0.00000000E+00
  0.00000000E+00  0.00000000E+00  0.00000000E+00
  0.00000000E+00  0.00000000E+00  0.00000000E+00
  0.00000000E+00  0.00000000E+00  0.00000000E+00
  0.00000000E+00  0.00000000E+00  0.00000000E+00
  0.00000000E+00  0.00000000E+00  0.00000000E+00
  0.00000000E+00  0.00000000E+00  0.00000000E+00
  0.00000000E+00  0.00000000E+00  0.00000000E+00
  0.00000000E+00  0.00000000E+00  0.00000000E+00
  0.00000000E+00  0.00000000E+00  0.00000000E+00
  0.00000000E+00  0.00000000E+00  0.00000000E+00
  0.00000000E+00  0.00000000E+00  0.00000000E+00
  0.00000000E+00  0.00000000E+00  0.00000000E+00
  0.00000000E+00  0.00000000E+00  0.00000000E+00
  0.00000000E+00  0.00000000E+00  0.00000000E+00
  0.00000000E+00  0.00000000E+00  0.00000000E+00
  0.00000000E+00  0.00000000E+00  0.00000000E+00
  0.00000000E+00  0.00000000E+00  0.00000000E+00
  0.00000000E+00  0.00000000E+00  0.00000000E+00
  0.00000000E+00  0.00000000E+00  0.00000000E+00
  0.00000000E+00  0.00000000E+00  0.00000000E+00
  0.00000000E+00  0.00000000E+00  0.00000000E+00
  0.00000000E+00  0.00000000E+00  0.00000000E+00
  0.00000000E+00  0.00000000E+00  0.00000000E+00
  0.00000000E+00  0.00000000E+00  0.00000000E+00
  0.00000000E+00  0.00000000E+00  0.00000000E+00
  0.00000000E+00  0.00000000E+00  0.00000000E+00
  0.00000000E+00  0.00000000E+00  0.00000000E+00
  0.00000000E+00  0.00000000E+00  0.00000000E+00
  0.00000000E+00  0.00000000E+00  0.00000000E+00
  0.00000000E+00  0.00000000E+00  0.00000000E+00
  0.00000000E+00  0.00000000E+00  0.00000000E+00
  0.00000000E+00  0.00000000E+00  0.00000000E+00
  0.00000000E+00  0.00000000E+00  0.00000000E+00
  0.00000000E+00  0.00000000E+00  0.00000000E+00
  0.00000000E+00  0.00000000E+00  0.00000000E+00
  0.00000000E+00  0.00000000E+00  0.00000000E+00
  0.00000000E+00  0.00000000E+00  0.00000000E+00
  0.00000000E+00  0.00000000E+00  0.00000000E+00
  0.00000000E+00  0.00000000E+00  0.00000000E+00
  0.00000000E+00  0.00000000E+00  0.00000000E+00
  0.00000000E+00  0.00000000E+00  0.00000000E+00
  0.00000000E+00  0.00000000E+00  0.00000000E+00
  0.00000000E+00  0.00000000E+00  0.00000000E+00
  0.00000000E+00  0.00000000E+00  0.00000000E+00
  0.00000000E+00  0.00000000E+00  0.00000000E+00
  0.00000000E+00  0.00000000E+00  0.00000000E+00
  0.00000000E+00  0.00000000E+00  0.00000000E+00
  0.00000000E+00  0.00000000E+00  0.00000000E+00
  0.00000000E+00  0.00000000E+00  0.00000000E+00
  0.00000000E+00  0.00000000E+00  0.00000000E+00
  0.00000000E+00  0.00000000E+00  0.00000000E+00
  0.00000000E+00  0.00000000E+00  0.00000000E+00
  0.00000000E+00  0.00000000E+00  0.00000000E+00
  0.00000000E+00  0.00000000E+00  0.00000000E+00
  0.00000000E+00  0.00000000E+00  0.00000000E+00
  0.00000000E+00  0.00000000E+00  0.00000000E+00
  0.00000000E+00  0.00000000E+00  0.00000000E+00
  0.00000000E+00  0.00000000E+00  0.00000000E+00
  0.00000000E+00  0.00000000E+00  0.00000000E+00
  0.00000000E+00  0.00000000E+00  0.00000000E+00
  0.00000000E+00  0.00000000E+00  0.00000000E+00
  0.00000000E+00  0.00000000E+00  0.00000000E+00
  0.00000000E+00  0.00000000E+00  0.00000000E+00
  0.00000000E+00  0.00000000E+00  0.00000000E+00
  0.00000000E+00  0.00000000E+00  0.00000000E+00
  0.00000000E+00  0.00000000E+00  0.00000000E+00
  0.00000000E+00  0.00000000E+00  0.00000000E+00
  0.00000000E+00  0.00000000E+00  0.00000000E+00
  0.00000000E+00  0.00000000E+00  0.00000000E+00
  0.00000000E+00  0.00000000E+00  0.00000000E+00
  0.00000000E+00  0.00000000E+00  0.00000000E+00
  0.00000000E+00  0.00000000E+00  0.00000000E+00
  0.00000000E+00  0.00000000E+00  0.00000000E+00
  0.00000000E+00  0.00000000E+00  0.00000000E+00
  0.00000000E+00  0.00000000E+00  0.00000000E+00
  0.00000000E+00  0.00000000E+00  0.00000000E+00
  0.00000000E+00  0.00000000E+00  0.00000000E+00
  0.00000000E+00  0.00000000E+00  0.00000000E+00
  0.00000000E+00  0.00000000E+00  0.00000000E+00
  0.00000000E+00  0.00000000E+00  0.00000000E+00
  0.00000000E+00  0.00000000E+00  0.00000000E+00
  0.00000000E+00  0.00000000E+00  0.00000000E+00
  0.00000000E+00  0.00000000E+00  0.00000000E+00
  0.00000000E+00  0.00000000E+00  0.00000000E+00
  0.00000000E+00  0.00000000E+00  0.00000000E+00
  0.00000000E+00  0.00000000E+00  0.00000000E+00
  0.00000000E+00  0.00000000E+00  0.00000000E+00
  0.00000000E+00  0.00000000E+00  0.00000000E+00
  0.00000000E+00  0.00000000E+00  0.00000000E+00
  0.00000000E+00  0.00000000E+00  0.00000000E+00
  0.00000000E+00  0.00000000E+00  0.00000000E+00
  0.00000000E+00  0.00000000E+00  0.00000000E+00
  0.00000000E+00  0.00000000E+00  0.00000000E+00
  0.00000000E+00  0.00000000E+00  0.00000000E+00
  0.00000000E+00  0.00000000E+00  0.00000000E+00
  0.00000000E+00  0.00000000E+00  0.00000000E+00
  0.00000000E+00  0.00000000E+00  0.00000000E+00
  0.00000000E+00  0.00000000E+00  0.00000000E+00
  0.00000000E+00  0.00000000E+00  0.00000000E+00
  0.00000000E+00  0.00000000E+00  0.00000000E+00
  0.00000000E+00  0.00000000E+00  0.00000000E+00
  0.00000000E+00  0.00000000E+00  0.00000000E+00
  0.00000000E+00  0.00000000E+00  0.00000000E+00
  0.00000000E+00  0.00000000E+00  0.00000000E+00
  0.00000000E+00  0.00000000E+00  0.00000000E+00
  0.00000000E+00  0.00000000E+00  0.00000000E+00
  0.00000000E+00  0.00000000E+00  0.00000000E+00
  0.00000000E+00  0.00000000E+00  0.00000000E+00
