CONTCAR\(6)                             
   1.00000000000000     
     4.8587999344000004    0.0000000000000000    0.0000000000000000
     2.4293999672000002    4.2078441751000000    0.0000000000000000
     0.0000000000000000    0.0000000000000000   39.1618995667000007
   Pt   O    H 
    15     2     4
Selective dynamics
Direct
  0.3333300050000005  0.0000100000000032  0.0255399999999995   F   F   F
  0.9999899860000028  0.6666700239999983  0.0255399999999995   F   F   F
  0.6666600109999976  0.3333399890000024  0.0255399999999995   F   F   F
  0.0000000000000000  0.0000000000000000  0.0840200040000028   F   F   F
  0.6666700239999983  0.6666700239999983  0.0840200040000028   F   F   F
  0.3333300050000005  0.3333300050000005  0.0840200040000028   F   F   F
  0.9992199105580198  0.3339683521068579  0.1419043400152341   T   T   T
  0.6657252205644018  0.0011001494092047  0.1418970130512390   T   T   T
  0.3321591980580235  0.6675464085283989  0.1418857067011685   T   T   T
  0.3330136553194176  0.9993577163480409  0.1996330732234523   T   T   T
  0.9949894551598307  0.6691983965743694  0.1996357708798023   T   T   T
  0.6644803319890195  0.3375596256487500  0.1996581011721387   T   T   T
  0.9950847729923147  0.0035278496882269  0.2578569421478374   T   T   T
  0.6611725904404997  0.6702948883529187  0.2601896641383739   T   T   T
  0.3283132391206196  0.3367801618313491  0.2574372378888874   T   T   T
  0.6560916255579853  0.6684448789913571  0.3209217352556852   T   T   T
  0.3163416245158655  0.3311767662003972  0.3412379807139490   T   T   T
  0.4272926683445123  0.4418478992798238  0.3328842035690553   T   T   T
  0.8840141997946471  0.5653148380431163  0.3276554312531796   T   T   T
  0.5524565559138874  0.8964875528807342  0.3275321926596653   T   T   T
  0.3250976400717031  0.3393199904668354  0.3661490718980455   T   T   T
 
  0.00000000E+00  0.00000000E+00  0.00000000E+00
  0.00000000E+00  0.00000000E+00  0.00000000E+00
  0.00000000E+00  0.00000000E+00  0.00000000E+00
  0.00000000E+00  0.00000000E+00  0.00000000E+00
  0.00000000E+00  0.00000000E+00  0.00000000E+00
  0.00000000E+00  0.00000000E+00  0.00000000E+00
  0.00000000E+00  0.00000000E+00  0.00000000E+00
  0.00000000E+00  0.00000000E+00  0.00000000E+00
  0.00000000E+00  0.00000000E+00  0.00000000E+00
  0.00000000E+00  0.00000000E+00  0.00000000E+00
  0.00000000E+00  0.00000000E+00  0.00000000E+00
  0.00000000E+00  0.00000000E+00  0.00000000E+00
  0.00000000E+00  0.00000000E+00  0.00000000E+00
  0.00000000E+00  0.00000000E+00  0.00000000E+00
  0.00000000E+00  0.00000000E+00  0.00000000E+00
  0.00000000E+00  0.00000000E+00  0.00000000E+00
  0.00000000E+00  0.00000000E+00  0.00000000E+00
  0.00000000E+00  0.00000000E+00  0.00000000E+00
  0.00000000E+00  0.00000000E+00  0.00000000E+00
  0.00000000E+00  0.00000000E+00  0.00000000E+00
  0.00000000E+00  0.00000000E+00  0.00000000E+00
