CONTCAR\(6)                             
   1.00000000000000     
     4.8587999344000004    0.0000000000000000    0.0000000000000000
     2.4293999672000002    4.2078441751000000    0.0000000000000000
     0.0000000000000000    0.0000000000000000   39.1618995667000007
   Pt   O    H 
    15     2     4
Selective dynamics
Direct
  0.3333300050000005  0.0000100000000032  0.0255399999999995   F   F   F
  0.9999899860000028  0.6666700239999983  0.0255399999999995   F   F   F
  0.6666600109999976  0.3333399890000024  0.0255399999999995   F   F   F
  0.0000000000000000  0.0000000000000000  0.0840200040000028   F   F   F
  0.6666700239999983  0.6666700239999983  0.0840200040000028   F   F   F
  0.3333300050000005  0.3333300050000005  0.0840200040000028   F   F   F
  0.9990281970233842  0.3338532037412650  0.1419383771722840   T   T   T
  0.6656021640425505  0.0011515918187763  0.1419503114145605   T   T   T
  0.3323070161867712  0.6673985681548805  0.1419105260323958   T   T   T
  0.3333316351949855  0.9984404917633083  0.1997484363991953   T   T   T
  0.9944639534494504  0.6687298860061103  0.1996853790472174   T   T   T
  0.6641102401392940  0.3380507155374468  0.1998506945664772   T   T   T
  0.9948709547397652  0.0026790031354490  0.2577828061862297   T   T   T
  0.6613258919899755  0.6701017803320434  0.2606864198858221   T   T   T
  0.3276978660580288  0.3361613828079668  0.2574276476701945   T   T   T
  0.6602420841775782  0.6715695597195989  0.3199923628288615   T   T   T
  0.3163035319313765  0.3306439037992655  0.3411054710920380   T   T   T
  0.4286882659674809  0.4426962689733989  0.3337545981290370   T   T   T
  0.8862119875951812  0.5656428475129240  0.3277295907431029   T   T   T
  0.5536772516077887  0.8977542239740347  0.3276227158412068   T   T   T
  0.3203544889779980  0.3342323034625058  0.3660901032260123   T   T   T
 
  0.00000000E+00  0.00000000E+00  0.00000000E+00
  0.00000000E+00  0.00000000E+00  0.00000000E+00
  0.00000000E+00  0.00000000E+00  0.00000000E+00
  0.00000000E+00  0.00000000E+00  0.00000000E+00
  0.00000000E+00  0.00000000E+00  0.00000000E+00
  0.00000000E+00  0.00000000E+00  0.00000000E+00
  0.00000000E+00  0.00000000E+00  0.00000000E+00
  0.00000000E+00  0.00000000E+00  0.00000000E+00
  0.00000000E+00  0.00000000E+00  0.00000000E+00
  0.00000000E+00  0.00000000E+00  0.00000000E+00
  0.00000000E+00  0.00000000E+00  0.00000000E+00
  0.00000000E+00  0.00000000E+00  0.00000000E+00
  0.00000000E+00  0.00000000E+00  0.00000000E+00
  0.00000000E+00  0.00000000E+00  0.00000000E+00
  0.00000000E+00  0.00000000E+00  0.00000000E+00
  0.00000000E+00  0.00000000E+00  0.00000000E+00
  0.00000000E+00  0.00000000E+00  0.00000000E+00
  0.00000000E+00  0.00000000E+00  0.00000000E+00
  0.00000000E+00  0.00000000E+00  0.00000000E+00
  0.00000000E+00  0.00000000E+00  0.00000000E+00
  0.00000000E+00  0.00000000E+00  0.00000000E+00
