CONTCAR\(6)                             
   1.00000000000000     
     4.8587999344000004    0.0000000000000000    0.0000000000000000
     2.4293999672000002    4.2078441751000000    0.0000000000000000
     0.0000000000000000    0.0000000000000000   39.1618995667000007
   Pt   O    H 
    15     2     4
Selective dynamics
Direct
  0.3333300050000005  0.0000100000000032  0.0255399999999995   F   F   F
  0.9999899860000028  0.6666700239999983  0.0255399999999995   F   F   F
  0.6666600109999976  0.3333399890000024  0.0255399999999995   F   F   F
  0.0000000000000000  0.0000000000000000  0.0840200040000028   F   F   F
  0.6666700239999983  0.6666700239999983  0.0840200040000028   F   F   F
  0.3333300050000005  0.3333300050000005  0.0840200040000028   F   F   F
  0.9993854491170646  0.3325448580285559  0.1417641674291815   T   T   T
  0.6656202224225709  0.9994345434735928  0.1417730439612678   T   T   T
  0.3324760327491690  0.6656942205930242  0.1417775246076125   T   T   T
  0.3308527829576778  0.9975768365843062  0.1995731403413206   T   T   T
  0.9970503528492886  0.6648192050030555  0.1995722055885042   T   T   T
  0.6643668246783829  0.3313698448249718  0.1995655687001564   T   T   T
  0.9950446294075107  0.9961321482670525  0.2585880492343144   T   T   T
  0.6616506076646044  0.6628079810340506  0.2587184991605542   T   T   T
  0.3284822936231098  0.3295095005452963  0.2584540241300162   T   T   T
  0.6532193634181218  0.6611975201783578  0.3596235961430557   T   T   T
  0.3313544106766705  0.3400390462186709  0.3450065415760235   T   T   T
  0.4484842622083024  0.4572129642770092  0.3496517069007283   T   T   T
  0.8820864659550210  0.5638724404048826  0.3543551653490875   T   T   T
  0.5560154529716252  0.8902219330477097  0.3543663614792712   T   T   T
  0.3245532622115404  0.3329062012594089  0.3198299175032885   T   T   T
 
  0.00000000E+00  0.00000000E+00  0.00000000E+00
  0.00000000E+00  0.00000000E+00  0.00000000E+00
  0.00000000E+00  0.00000000E+00  0.00000000E+00
  0.00000000E+00  0.00000000E+00  0.00000000E+00
  0.00000000E+00  0.00000000E+00  0.00000000E+00
  0.00000000E+00  0.00000000E+00  0.00000000E+00
  0.00000000E+00  0.00000000E+00  0.00000000E+00
  0.00000000E+00  0.00000000E+00  0.00000000E+00
  0.00000000E+00  0.00000000E+00  0.00000000E+00
  0.00000000E+00  0.00000000E+00  0.00000000E+00
  0.00000000E+00  0.00000000E+00  0.00000000E+00
  0.00000000E+00  0.00000000E+00  0.00000000E+00
  0.00000000E+00  0.00000000E+00  0.00000000E+00
  0.00000000E+00  0.00000000E+00  0.00000000E+00
  0.00000000E+00  0.00000000E+00  0.00000000E+00
  0.00000000E+00  0.00000000E+00  0.00000000E+00
  0.00000000E+00  0.00000000E+00  0.00000000E+00
  0.00000000E+00  0.00000000E+00  0.00000000E+00
  0.00000000E+00  0.00000000E+00  0.00000000E+00
  0.00000000E+00  0.00000000E+00  0.00000000E+00
  0.00000000E+00  0.00000000E+00  0.00000000E+00
