CONTCAR\(6)                             
   1.00000000000000     
     4.8587999344000004    0.0000000000000000    0.0000000000000000
     2.4293999672000002    4.2078441751000000    0.0000000000000000
     0.0000000000000000    0.0000000000000000   39.1618995667000007
   Pt   O    H 
    15     2     4
Selective dynamics
Direct
  0.3333300050000005  0.0000100000000032  0.0255399999999995   F   F   F
  0.9999899860000028  0.6666700239999983  0.0255399999999995   F   F   F
  0.6666600109999976  0.3333399890000024  0.0255399999999995   F   F   F
  0.0000000000000000  0.0000000000000000  0.0840200040000028   F   F   F
  0.6666700239999983  0.6666700239999983  0.0840200040000028   F   F   F
  0.3333300050000005  0.3333300050000005  0.0840200040000028   F   F   F
  0.9995992644240146  0.3327818252994409  0.1417968716884517   T   T   T
  0.6658741039549835  0.9996621179602717  0.1418032048946902   T   T   T
  0.3327382406636625  0.6658864713186098  0.1418060154752078   T   T   T
  0.3309078543333840  0.9978848105301422  0.1996036129562655   T   T   T
  0.9974124055434236  0.6647278200503657  0.1996054550632148   T   T   T
  0.6643062332662044  0.3313825780934198  0.1996001719726958   T   T   T
  0.9946777109502072  0.9957839043080182  0.2586763079661479   T   T   T
  0.6612612042484606  0.6624790399542742  0.2587381956750242   T   T   T
  0.3280647060622237  0.3291485303579831  0.2586856320425629   T   T   T
  0.6555325883312496  0.6635045742150218  0.3604728840607729   T   T   T
  0.3309647622799414  0.3397342049162071  0.3449335101418559   T   T   T
  0.4480498616330221  0.4570430707021749  0.3493050120019242   T   T   T
  0.8818240233844477  0.5640993959118513  0.3537452291832509   T   T   T
  0.5565206325701071  0.8898126580010263  0.3537814442426448   T   T   T
  0.3230877621493533  0.3313749383581577  0.3197164040255680   T   T   T
 
  0.00000000E+00  0.00000000E+00  0.00000000E+00
  0.00000000E+00  0.00000000E+00  0.00000000E+00
  0.00000000E+00  0.00000000E+00  0.00000000E+00
  0.00000000E+00  0.00000000E+00  0.00000000E+00
  0.00000000E+00  0.00000000E+00  0.00000000E+00
  0.00000000E+00  0.00000000E+00  0.00000000E+00
  0.00000000E+00  0.00000000E+00  0.00000000E+00
  0.00000000E+00  0.00000000E+00  0.00000000E+00
  0.00000000E+00  0.00000000E+00  0.00000000E+00
  0.00000000E+00  0.00000000E+00  0.00000000E+00
  0.00000000E+00  0.00000000E+00  0.00000000E+00
  0.00000000E+00  0.00000000E+00  0.00000000E+00
  0.00000000E+00  0.00000000E+00  0.00000000E+00
  0.00000000E+00  0.00000000E+00  0.00000000E+00
  0.00000000E+00  0.00000000E+00  0.00000000E+00
  0.00000000E+00  0.00000000E+00  0.00000000E+00
  0.00000000E+00  0.00000000E+00  0.00000000E+00
  0.00000000E+00  0.00000000E+00  0.00000000E+00
  0.00000000E+00  0.00000000E+00  0.00000000E+00
  0.00000000E+00  0.00000000E+00  0.00000000E+00
  0.00000000E+00  0.00000000E+00  0.00000000E+00
