CONTCAR\(5)\(1\1\1)                     
   1.00000000000000     
     4.8588352202999996    0.0000000000000000    0.0000000000000000
     0.0000000000000000    2.8052499294000000    0.0000000000000000
     0.0000000000000000    0.0000000000000000   39.1618995667000007
   Pt
    10
Selective dynamics
Direct
  0.3333300050000005  0.0000100000000032  0.0255399999999995   F   F   F
  0.8333299760000017  0.5000100139999972  0.0255399999999995   F   F   F
  0.0000000000000000  0.0000000000000000  0.0840200040000028   F   F   F
  0.5000000000000000  0.5000000000000000  0.0840200040000028   F   F   F
  0.1674393521919931  0.5000060751452052  0.1416622629373988   T   T   T
  0.6674393811919922  0.0000060751452053  0.1416622629373988   T   T   T
  0.3343467795454433 -0.0000080426821168  0.1993237583213431   T   T   T
  0.8343467505454444  0.4999919713178772  0.1993237583213431   T   T   T
 -0.0020996143533101  0.0000050106412264  0.2582281021102272   T   T   T
  0.4979003856466900  0.5000050106412264  0.2582281021102272   T   T   T
 
  0.00000000E+00  0.00000000E+00  0.00000000E+00
  0.00000000E+00  0.00000000E+00  0.00000000E+00
  0.00000000E+00  0.00000000E+00  0.00000000E+00
  0.00000000E+00  0.00000000E+00  0.00000000E+00
  0.00000000E+00  0.00000000E+00  0.00000000E+00
  0.00000000E+00  0.00000000E+00  0.00000000E+00
  0.00000000E+00  0.00000000E+00  0.00000000E+00
  0.00000000E+00  0.00000000E+00  0.00000000E+00
  0.00000000E+00  0.00000000E+00  0.00000000E+00
  0.00000000E+00  0.00000000E+00  0.00000000E+00
