CONTCAR\(6)                             
   1.00000000000000     
     4.8587999344000004    0.0000000000000000    0.0000000000000000
     2.4293999672000002    4.2078441751000000    0.0000000000000000
     0.0000000000000000    0.0000000000000000   39.1618995667000007
   Pt   O    H 
    15     2     4
Selective dynamics
Direct
  0.3333300050000005  0.0000100000000032  0.0255399999999995   F   F   F
  0.9999899860000028  0.6666700239999983  0.0255399999999995   F   F   F
  0.6666600109999976  0.3333399890000024  0.0255399999999995   F   F   F
  0.0000000000000000  0.0000000000000000  0.0840200040000028   F   F   F
  0.6666700239999983  0.6666700239999983  0.0840200040000028   F   F   F
  0.3333300050000005  0.3333300050000005  0.0840200040000028   F   F   F
  0.9991810320457176  0.3339442775108233  0.1418970831549592   T   T   T
  0.6656936591903433  0.0011208572480910  0.1418963039249029   T   T   T
  0.3321944801140806  0.6675181119868546  0.1418750203230360   T   T   T
  0.3331425660045595  0.9989638581744245  0.1996457122200818   T   T   T
  0.9947370588830040  0.6690021298941804  0.1996290193699893   T   T   T
  0.6643078759551061  0.3377629761078828  0.1996898064261738   T   T   T
  0.9948196840920926  0.0031463970370944  0.2577919098815089   T   T   T
  0.6610349039086786  0.6700710925560471  0.2602880330427296   T   T   T
  0.3279980609629253  0.3364065829108469  0.2573931313311488   T   T   T
  0.6570462995597565  0.6691521542159250  0.3207043891842933   T   T   T
  0.3166985760748763  0.3313982113458906  0.3412663813637754   T   T   T
  0.4279545266649856  0.4423567389773171  0.3331009353465020   T   T   T
  0.8845437352533279  0.5651619720392321  0.3277721770719825   T   T   T
  0.5525172826689215  0.8968270844721434  0.3276503184228760   T   T   T
  0.3242703465919520  0.3384251468594922  0.3662226296522338   T   T   T
 
  0.00000000E+00  0.00000000E+00  0.00000000E+00
  0.00000000E+00  0.00000000E+00  0.00000000E+00
  0.00000000E+00  0.00000000E+00  0.00000000E+00
  0.00000000E+00  0.00000000E+00  0.00000000E+00
  0.00000000E+00  0.00000000E+00  0.00000000E+00
  0.00000000E+00  0.00000000E+00  0.00000000E+00
  0.00000000E+00  0.00000000E+00  0.00000000E+00
  0.00000000E+00  0.00000000E+00  0.00000000E+00
  0.00000000E+00  0.00000000E+00  0.00000000E+00
  0.00000000E+00  0.00000000E+00  0.00000000E+00
  0.00000000E+00  0.00000000E+00  0.00000000E+00
  0.00000000E+00  0.00000000E+00  0.00000000E+00
  0.00000000E+00  0.00000000E+00  0.00000000E+00
  0.00000000E+00  0.00000000E+00  0.00000000E+00
  0.00000000E+00  0.00000000E+00  0.00000000E+00
  0.00000000E+00  0.00000000E+00  0.00000000E+00
  0.00000000E+00  0.00000000E+00  0.00000000E+00
  0.00000000E+00  0.00000000E+00  0.00000000E+00
  0.00000000E+00  0.00000000E+00  0.00000000E+00
  0.00000000E+00  0.00000000E+00  0.00000000E+00
  0.00000000E+00  0.00000000E+00  0.00000000E+00
