CONTCAR\(6)                             
   1.00000000000000     
     4.8587999344000004    0.0000000000000000    0.0000000000000000
     2.4293999672000002    4.2078441751000000    0.0000000000000000
     0.0000000000000000    0.0000000000000000   39.1618995667000007
   Pt   O    H 
    15     2     4
Selective dynamics
Direct
  0.3333300050000005  0.0000100000000032  0.0255399999999995   F   F   F
  0.9999899860000028  0.6666700239999983  0.0255399999999995   F   F   F
  0.6666600109999976  0.3333399890000024  0.0255399999999995   F   F   F
  0.0000000000000000  0.0000000000000000  0.0840200040000028   F   F   F
  0.6666700239999983  0.6666700239999983  0.0840200040000028   F   F   F
  0.3333300050000005  0.3333300050000005  0.0840200040000028   F   F   F
  0.9998646099305759  0.3329696404303490  0.1417885090413904   T   T   T
  0.6660394414455055  0.9998977264399755  0.1417856272542934   T   T   T
  0.3329232966766895  0.6660622219989989  0.1417840596663780   T   T   T
  0.3310489390660010  0.9978630662672074  0.1996000804559586   T   T   T
  0.9974630279925094  0.6649170871289698  0.1996045628042111   T   T   T
  0.6644999453673535  0.3314740914222227  0.1995986053925947   T   T   T
  0.9943888887890182  0.9955055104931390  0.2586135288190476   T   T   T
  0.6609427960908931  0.6622571770306109  0.2586752708693112   T   T   T
  0.3278275194099578  0.3288990451591332  0.2585807919657697   T   T   T
  0.6553706820499556  0.6633037159672668  0.3601561755135165   T   T   T
  0.3306830251477706  0.3395230706496548  0.3448441385247136   T   T   T
  0.4477664195592865  0.4569387276350838  0.3493277878637002   T   T   T
  0.8823113613931781  0.5643385282828675  0.3538048543290699   T   T   T
  0.5569748715300236  0.8902048361033721  0.3538655740007428   T   T   T
  0.3229731796935056  0.3312734905131691  0.3196707633840177   T   T   T
 
  0.00000000E+00  0.00000000E+00  0.00000000E+00
  0.00000000E+00  0.00000000E+00  0.00000000E+00
  0.00000000E+00  0.00000000E+00  0.00000000E+00
  0.00000000E+00  0.00000000E+00  0.00000000E+00
  0.00000000E+00  0.00000000E+00  0.00000000E+00
  0.00000000E+00  0.00000000E+00  0.00000000E+00
  0.00000000E+00  0.00000000E+00  0.00000000E+00
  0.00000000E+00  0.00000000E+00  0.00000000E+00
  0.00000000E+00  0.00000000E+00  0.00000000E+00
  0.00000000E+00  0.00000000E+00  0.00000000E+00
  0.00000000E+00  0.00000000E+00  0.00000000E+00
  0.00000000E+00  0.00000000E+00  0.00000000E+00
  0.00000000E+00  0.00000000E+00  0.00000000E+00
  0.00000000E+00  0.00000000E+00  0.00000000E+00
  0.00000000E+00  0.00000000E+00  0.00000000E+00
  0.00000000E+00  0.00000000E+00  0.00000000E+00
  0.00000000E+00  0.00000000E+00  0.00000000E+00
  0.00000000E+00  0.00000000E+00  0.00000000E+00
  0.00000000E+00  0.00000000E+00  0.00000000E+00
  0.00000000E+00  0.00000000E+00  0.00000000E+00
  0.00000000E+00  0.00000000E+00  0.00000000E+00
