CONTCAR\(6)                             
   1.00000000000000     
     4.8587999344000004    0.0000000000000000    0.0000000000000000
     2.4293999672000002    4.2078441751000000    0.0000000000000000
     0.0000000000000000    0.0000000000000000   39.1618995667000007
   Pt   O    H 
    15     2     4
Selective dynamics
Direct
  0.3333300050000005  0.0000100000000032  0.0255399999999995   F   F   F
  0.9999899860000028  0.6666700239999983  0.0255399999999995   F   F   F
  0.6666600109999976  0.3333399890000024  0.0255399999999995   F   F   F
  0.0000000000000000  0.0000000000000000  0.0840200040000028   F   F   F
  0.6666700239999983  0.6666700239999983  0.0840200040000028   F   F   F
  0.3333300050000005  0.3333300050000005  0.0840200040000028   F   F   F
  0.9989941103331084  0.3339303923523262  0.1419118447782569   T   T   T
  0.6656107754147622  0.0011044773125805  0.1419244473551809   T   T   T
  0.3323589975589489  0.6674046480628055  0.1418852383824074   T   T   T
  0.3335175446414484  0.9983324670387129  0.1997819147792610   T   T   T
  0.9943618884429960  0.6687328955397637  0.1997183910645476   T   T   T
  0.6640956362198792  0.3382538952721196  0.1998839551908186   T   T   T
  0.9948990119110500  0.0027649963333261  0.2577625949786795   T   T   T
  0.6613926656432546  0.6702129761483446  0.2607049113301921   T   T   T
  0.3277406431639306  0.3362189211172870  0.2574093590430119   T   T   T
  0.6603789950549316  0.6716425490021530  0.3199250729596177   T   T   T
  0.3163341154462524  0.3307476172300879  0.3410746190565773   T   T   T
  0.4286073248187197  0.4426849926960500  0.3336688695119919   T   T   T
  0.8861338039053854  0.5652966048152314  0.3277555484381652   T   T   T
  0.5532156964849546  0.8978196288889274  0.3276497960155220   T   T   T
  0.3203136567866563  0.3342332838660587  0.3660688337183293   T   T   T
 
  0.00000000E+00  0.00000000E+00  0.00000000E+00
  0.00000000E+00  0.00000000E+00  0.00000000E+00
  0.00000000E+00  0.00000000E+00  0.00000000E+00
  0.00000000E+00  0.00000000E+00  0.00000000E+00
  0.00000000E+00  0.00000000E+00  0.00000000E+00
  0.00000000E+00  0.00000000E+00  0.00000000E+00
  0.00000000E+00  0.00000000E+00  0.00000000E+00
  0.00000000E+00  0.00000000E+00  0.00000000E+00
  0.00000000E+00  0.00000000E+00  0.00000000E+00
  0.00000000E+00  0.00000000E+00  0.00000000E+00
  0.00000000E+00  0.00000000E+00  0.00000000E+00
  0.00000000E+00  0.00000000E+00  0.00000000E+00
  0.00000000E+00  0.00000000E+00  0.00000000E+00
  0.00000000E+00  0.00000000E+00  0.00000000E+00
  0.00000000E+00  0.00000000E+00  0.00000000E+00
  0.00000000E+00  0.00000000E+00  0.00000000E+00
  0.00000000E+00  0.00000000E+00  0.00000000E+00
  0.00000000E+00  0.00000000E+00  0.00000000E+00
  0.00000000E+00  0.00000000E+00  0.00000000E+00
  0.00000000E+00  0.00000000E+00  0.00000000E+00
  0.00000000E+00  0.00000000E+00  0.00000000E+00
