CONTCAR\(5)\(1\1\1)                     
   1.00000000000000     
     4.8588352202999996    0.0000000000000000    0.0000000000000000
     0.0000000000000000    8.4157495498999992    0.0000000000000000
     0.0000000000000000    0.0000000000000000   39.1618995667000007
   Pt
    30
Selective dynamics
Direct
  0.3333300050000005  0.0000029999999995  0.0255399999999995   F   F   F
  0.3333300050000005  0.3333370089999974  0.0255399999999995   F   F   F
  0.3333300050000005  0.6666700239999983  0.0255399999999995   F   F   F
  0.8333299760000017  0.1666699949999995  0.0255399999999995   F   F   F
  0.8333299760000017  0.5000029799999979  0.0255399999999995   F   F   F
  0.8333299760000017  0.8333370089999974  0.0255399999999995   F   F   F
  0.0000000000000000  0.0000000000000000  0.0840200040000028   F   F   F
  0.0000000000000000  0.3333329860000021  0.0840200040000028   F   F   F
  0.0000000000000000  0.6666669849999991  0.0840200040000028   F   F   F
  0.5000000000000000  0.1666669990000003  0.0840200040000028   F   F   F
  0.5000000000000000  0.5000000000000000  0.0840200040000028   F   F   F
  0.5000000000000000  0.8333330150000009  0.0840200040000028   F   F   F
  0.1674590812724118  0.1666630060000003  0.1416604423524403   T   T   T
  0.1674590812724118  0.4999969899999996  0.1416604423524403   T   T   T
  0.1674590812724118  0.8333299760000017  0.1416604423524403   T   T   T
  0.6674591102724107  0.3333300050000005  0.1416604423524403   T   T   T
  0.6674591102724107  0.6666629910000026  0.1416604423524403   T   T   T
  0.6674591102724107  0.9999970200000021  0.1416604423524403   T   T   T
  0.3343658826437630  0.0000029999999995  0.1993290485673914   T   T   T
  0.3343658826437630  0.3333370089999974  0.1993290485673914   T   T   T
  0.3343658826437630  0.6666700239999983  0.1993290485673914   T   T   T
  0.8343658536437641  0.1666699949999995  0.1993290485673914   T   T   T
  0.8343658536437641  0.5000029799999979  0.1993290485673914   T   T   T
  0.8343658536437641  0.8333370089999974  0.1993290485673914   T   T   T
 -0.0021466488077516 -0.0000000000000000  0.2582371427029662   T   T   T
 -0.0021466488077516  0.3333329860000021  0.2582371427029662   T   T   T
 -0.0021466488077516  0.6666669849999991  0.2582371427029662   T   T   T
  0.4978533511922484  0.1666669990000003  0.2582371427029662   T   T   T
  0.4978533511922484  0.5000000000000000  0.2582371427029662   T   T   T
  0.4978533511922484  0.8333330150000009  0.2582371427029662   T   T   T
 
  0.00000000E+00  0.00000000E+00  0.00000000E+00
  0.00000000E+00  0.00000000E+00  0.00000000E+00
  0.00000000E+00  0.00000000E+00  0.00000000E+00
  0.00000000E+00  0.00000000E+00  0.00000000E+00
  0.00000000E+00  0.00000000E+00  0.00000000E+00
  0.00000000E+00  0.00000000E+00  0.00000000E+00
  0.00000000E+00  0.00000000E+00  0.00000000E+00
  0.00000000E+00  0.00000000E+00  0.00000000E+00
  0.00000000E+00  0.00000000E+00  0.00000000E+00
  0.00000000E+00  0.00000000E+00  0.00000000E+00
  0.00000000E+00  0.00000000E+00  0.00000000E+00
  0.00000000E+00  0.00000000E+00  0.00000000E+00
  0.00000000E+00  0.00000000E+00  0.00000000E+00
  0.00000000E+00  0.00000000E+00  0.00000000E+00
  0.00000000E+00  0.00000000E+00  0.00000000E+00
  0.00000000E+00  0.00000000E+00  0.00000000E+00
  0.00000000E+00  0.00000000E+00  0.00000000E+00
  0.00000000E+00  0.00000000E+00  0.00000000E+00
  0.00000000E+00  0.00000000E+00  0.00000000E+00
  0.00000000E+00  0.00000000E+00  0.00000000E+00
  0.00000000E+00  0.00000000E+00  0.00000000E+00
  0.00000000E+00  0.00000000E+00  0.00000000E+00
  0.00000000E+00  0.00000000E+00  0.00000000E+00
  0.00000000E+00  0.00000000E+00  0.00000000E+00
  0.00000000E+00  0.00000000E+00  0.00000000E+00
  0.00000000E+00  0.00000000E+00  0.00000000E+00
  0.00000000E+00  0.00000000E+00  0.00000000E+00
  0.00000000E+00  0.00000000E+00  0.00000000E+00
  0.00000000E+00  0.00000000E+00  0.00000000E+00
  0.00000000E+00  0.00000000E+00  0.00000000E+00
