CONTCAR\(6)                             
   1.00000000000000     
     4.8587999344000004    0.0000000000000000    0.0000000000000000
     2.4293999672000002    4.2078441751000000    0.0000000000000000
     0.0000000000000000    0.0000000000000000   39.1618995667000007
   Pt   O    H 
    15     2     4
Selective dynamics
Direct
  0.3333300050000005  0.0000100000000032  0.0255399999999995   F   F   F
  0.9999899860000028  0.6666700239999983  0.0255399999999995   F   F   F
  0.6666600109999976  0.3333399890000024  0.0255399999999995   F   F   F
  0.0000000000000000  0.0000000000000000  0.0840200040000028   F   F   F
  0.6666700239999983  0.6666700239999983  0.0840200040000028   F   F   F
  0.3333300050000005  0.3333300050000005  0.0840200040000028   F   F   F
 -0.0003850481726917  0.3333735059618366  0.1420075483022409   T   T   T
  0.6665324775428527 -0.0000065784562948  0.1420208025755629   T   T   T
  0.3331679205784104  0.6664299475703168  0.1419741165015374   T   T   T
  0.3349236476922035 -0.0029323267816198  0.1998068544050658   T   T   T
 -0.0037522010221375  0.6672200884408248  0.1998947717528011   T   T   T
  0.6660522892738611  0.3363658572136936  0.1999267880759815   T   T   T
 -0.0025697891646010 -0.0002634086809347  0.2579918451535159   T   T   T
  0.6640424529731538  0.6657227719404487  0.2607145629478774   T   T   T
  0.3312873102870079  0.3320060861997600  0.2576244987339615   T   T   T
  0.6613511414649904  0.6636935267404915  0.3201183987607467   T   T   T
  0.3121948373978847  0.3144719028040324  0.3424174642502348   T   T   T
  0.3110889684333762  0.3123361764345262  0.3674283639629881   T   T   T
  0.8879566521792798  0.5581681218197516  0.3276256864867800   T   T   T
  0.5554661451544192  0.8904011983035219  0.3276211427178945   T   T   T
  0.4255347380220009  0.4275513148529836  0.3359127435096922   T   T   T
 
  0.00000000E+00  0.00000000E+00  0.00000000E+00
  0.00000000E+00  0.00000000E+00  0.00000000E+00
  0.00000000E+00  0.00000000E+00  0.00000000E+00
  0.00000000E+00  0.00000000E+00  0.00000000E+00
  0.00000000E+00  0.00000000E+00  0.00000000E+00
  0.00000000E+00  0.00000000E+00  0.00000000E+00
  0.00000000E+00  0.00000000E+00  0.00000000E+00
  0.00000000E+00  0.00000000E+00  0.00000000E+00
  0.00000000E+00  0.00000000E+00  0.00000000E+00
  0.00000000E+00  0.00000000E+00  0.00000000E+00
  0.00000000E+00  0.00000000E+00  0.00000000E+00
  0.00000000E+00  0.00000000E+00  0.00000000E+00
  0.00000000E+00  0.00000000E+00  0.00000000E+00
  0.00000000E+00  0.00000000E+00  0.00000000E+00
  0.00000000E+00  0.00000000E+00  0.00000000E+00
  0.00000000E+00  0.00000000E+00  0.00000000E+00
  0.00000000E+00  0.00000000E+00  0.00000000E+00
  0.00000000E+00  0.00000000E+00  0.00000000E+00
  0.00000000E+00  0.00000000E+00  0.00000000E+00
  0.00000000E+00  0.00000000E+00  0.00000000E+00
  0.00000000E+00  0.00000000E+00  0.00000000E+00
