CONTCAR\(6)                             
   1.00000000000000     
     4.8587999344000004    0.0000000000000000    0.0000000000000000
     2.4293999672000002    4.2078441751000000    0.0000000000000000
     0.0000000000000000    0.0000000000000000   39.1618995667000007
   Pt   O    H 
    15     2     4
Selective dynamics
Direct
  0.3333300050000005  0.0000100000000032  0.0255399999999995   F   F   F
  0.9999899860000028  0.6666700239999983  0.0255399999999995   F   F   F
  0.6666600109999976  0.3333399890000024  0.0255399999999995   F   F   F
  0.0000000000000000  0.0000000000000000  0.0840200040000028   F   F   F
  0.6666700239999983  0.6666700239999983  0.0840200040000028   F   F   F
  0.3333300050000005  0.3333300050000005  0.0840200040000028   F   F   F
  0.9993538316273032  0.3337960860128177  0.1419288120878406   T   T   T
  0.6651076944749263  0.0011100473449943  0.1419428689372424   T   T   T
  0.3319289230973936  0.6670245486608479  0.1419445886701922   T   T   T
  0.3337040358140584  0.9987648208122977  0.1998135357866389   T   T   T
  0.9939149400480076  0.6700737239997352  0.1998007559987798   T   T   T
  0.6653928801360109  0.3383399737524329  0.1997489627729507   T   T   T
  0.9967581698027601  0.0053504904681319  0.2579257300787887   T   T   T
  0.6632439750797303  0.6724336750915398  0.2612345166827410   T   T   T
  0.3304722253288332  0.3386740991800039  0.2571815038890080   T   T   T
  0.6558408727403844  0.6694106248354998  0.3234833519763853   T   T   T
  0.3128743941240302  0.3281580550503378  0.3370340850030686   T   T   T
  0.4258867024449344  0.4403437390387168  0.3439674532269379   T   T   T
  0.8807676406910829  0.5667514155388460  0.3313017381537833   T   T   T
  0.5523327905892330  0.8947803424545384  0.3311259547519754   T   T   T
  0.3228971120595148  0.3392575129506596  0.3113716195939276   T   T   T
 
  0.00000000E+00  0.00000000E+00  0.00000000E+00
  0.00000000E+00  0.00000000E+00  0.00000000E+00
  0.00000000E+00  0.00000000E+00  0.00000000E+00
  0.00000000E+00  0.00000000E+00  0.00000000E+00
  0.00000000E+00  0.00000000E+00  0.00000000E+00
  0.00000000E+00  0.00000000E+00  0.00000000E+00
  0.00000000E+00  0.00000000E+00  0.00000000E+00
  0.00000000E+00  0.00000000E+00  0.00000000E+00
  0.00000000E+00  0.00000000E+00  0.00000000E+00
  0.00000000E+00  0.00000000E+00  0.00000000E+00
  0.00000000E+00  0.00000000E+00  0.00000000E+00
  0.00000000E+00  0.00000000E+00  0.00000000E+00
  0.00000000E+00  0.00000000E+00  0.00000000E+00
  0.00000000E+00  0.00000000E+00  0.00000000E+00
  0.00000000E+00  0.00000000E+00  0.00000000E+00
  0.00000000E+00  0.00000000E+00  0.00000000E+00
  0.00000000E+00  0.00000000E+00  0.00000000E+00
  0.00000000E+00  0.00000000E+00  0.00000000E+00
  0.00000000E+00  0.00000000E+00  0.00000000E+00
  0.00000000E+00  0.00000000E+00  0.00000000E+00
  0.00000000E+00  0.00000000E+00  0.00000000E+00
