CONTCAR\(6)                             
   1.00000000000000     
     4.8587999344000004    0.0000000000000000    0.0000000000000000
     2.4293999672000002    4.2078441751000000    0.0000000000000000
     0.0000000000000000    0.0000000000000000   39.1618995667000007
   Pt   O    H 
    15     2     4
Selective dynamics
Direct
  0.3333300050000005  0.0000100000000032  0.0255399999999995   F   F   F
  0.9999899860000028  0.6666700239999983  0.0255399999999995   F   F   F
  0.6666600109999976  0.3333399890000024  0.0255399999999995   F   F   F
  0.0000000000000000  0.0000000000000000  0.0840200040000028   F   F   F
  0.6666700239999983  0.6666700239999983  0.0840200040000028   F   F   F
  0.3333300050000005  0.3333300050000005  0.0840200040000028   F   F   F
  0.9993692331682099  0.3325355349031021  0.1417612942329701   T   T   T
  0.6656185694418344  0.9994163510518308  0.1417710934379565   T   T   T
  0.3324666366599459  0.6656961023885044  0.1417761538514532   T   T   T
  0.3308571437664076  0.9975510546813585  0.1995633593666380   T   T   T
  0.9970178047507535  0.6648320217663714  0.1995618038284438   T   T   T
  0.6643816109299546  0.3313788289552190  0.1995548619508983   T   T   T
  0.9950535406613518  0.9961462369427058  0.2585756320460271   T   T   T
  0.6616618815055424  0.6628160873764074  0.2587194227633587   T   T   T
  0.3284989433087872  0.3295257671954786  0.2584179715951886   T   T   T
  0.6528985812356941  0.6608901178995957  0.3594543791232654   T   T   T
  0.3313624463298135  0.3400485843140406  0.3450008228527824   T   T   T
  0.4485143444403099  0.4572319468934008  0.3496902034471625   T   T   T
  0.8822044111516674  0.5638509972836960  0.3544408086131625   T   T   T
  0.5559983513749105  0.8903158590267961  0.3544523745962581   T   T   T
  0.3247344487884331  0.3330943852070848  0.3198346866918235   T   T   T
 
  0.00000000E+00  0.00000000E+00  0.00000000E+00
  0.00000000E+00  0.00000000E+00  0.00000000E+00
  0.00000000E+00  0.00000000E+00  0.00000000E+00
  0.00000000E+00  0.00000000E+00  0.00000000E+00
  0.00000000E+00  0.00000000E+00  0.00000000E+00
  0.00000000E+00  0.00000000E+00  0.00000000E+00
  0.00000000E+00  0.00000000E+00  0.00000000E+00
  0.00000000E+00  0.00000000E+00  0.00000000E+00
  0.00000000E+00  0.00000000E+00  0.00000000E+00
  0.00000000E+00  0.00000000E+00  0.00000000E+00
  0.00000000E+00  0.00000000E+00  0.00000000E+00
  0.00000000E+00  0.00000000E+00  0.00000000E+00
  0.00000000E+00  0.00000000E+00  0.00000000E+00
  0.00000000E+00  0.00000000E+00  0.00000000E+00
  0.00000000E+00  0.00000000E+00  0.00000000E+00
  0.00000000E+00  0.00000000E+00  0.00000000E+00
  0.00000000E+00  0.00000000E+00  0.00000000E+00
  0.00000000E+00  0.00000000E+00  0.00000000E+00
  0.00000000E+00  0.00000000E+00  0.00000000E+00
  0.00000000E+00  0.00000000E+00  0.00000000E+00
  0.00000000E+00  0.00000000E+00  0.00000000E+00
