CONTCAR\(6)                             
   1.00000000000000     
     4.8587999344000004    0.0000000000000000    0.0000000000000000
     2.4293999672000002    4.2078441751000000    0.0000000000000000
     0.0000000000000000    0.0000000000000000   39.1618995667000007
   Pt   O    H 
    15     2     4
Selective dynamics
Direct
  0.3333300050000005  0.0000100000000032  0.0255399999999995   F   F   F
  0.9999899860000028  0.6666700239999983  0.0255399999999995   F   F   F
  0.6666600109999976  0.3333399890000024  0.0255399999999995   F   F   F
  0.0000000000000000  0.0000000000000000  0.0840200040000028   F   F   F
  0.6666700239999983  0.6666700239999983  0.0840200040000028   F   F   F
  0.3333300050000005  0.3333300050000005  0.0840200040000028   F   F   F
  0.9990823395317864  0.3339678206526949  0.1418872789209595   T   T   T
  0.6656648519110190  0.0010757452148911  0.1418905122264169   T   T   T
  0.3322688540465260  0.6674802738894500  0.1418642550660650   T   T   T
  0.3332506193666503  0.9987077519150813  0.1996799422663876   T   T   T
  0.9945650704105311  0.6688787643979442  0.1996485614502418   T   T   T
  0.6642065500774028  0.3378998939814443  0.1997425268083175   T   T   T
  0.9947614154797066  0.0029216459911855  0.2577699647798248   T   T   T
  0.6610404329351635  0.6699957580199021  0.2604993642408877   T   T   T
  0.3278162101687396  0.3362572088210833  0.2573940745129235   T   T   T
  0.6582194502585048  0.6701770962495474  0.3203716833589580   T   T   T
  0.3166664070691615  0.3312472670255855  0.3412167157119907   T   T   T
  0.4283290522927270  0.4426096913671525  0.3333454461299178   T   T   T
  0.8849234701183497  0.5651754998445275  0.3278255134216204   T   T   T
  0.5527715876823542  0.8969060114612949  0.3277056053276108   T   T   T
  0.3232151714897820  0.3372891035990377  0.3661869487085099   T   T   T
 
  0.00000000E+00  0.00000000E+00  0.00000000E+00
  0.00000000E+00  0.00000000E+00  0.00000000E+00
  0.00000000E+00  0.00000000E+00  0.00000000E+00
  0.00000000E+00  0.00000000E+00  0.00000000E+00
  0.00000000E+00  0.00000000E+00  0.00000000E+00
  0.00000000E+00  0.00000000E+00  0.00000000E+00
  0.00000000E+00  0.00000000E+00  0.00000000E+00
  0.00000000E+00  0.00000000E+00  0.00000000E+00
  0.00000000E+00  0.00000000E+00  0.00000000E+00
  0.00000000E+00  0.00000000E+00  0.00000000E+00
  0.00000000E+00  0.00000000E+00  0.00000000E+00
  0.00000000E+00  0.00000000E+00  0.00000000E+00
  0.00000000E+00  0.00000000E+00  0.00000000E+00
  0.00000000E+00  0.00000000E+00  0.00000000E+00
  0.00000000E+00  0.00000000E+00  0.00000000E+00
  0.00000000E+00  0.00000000E+00  0.00000000E+00
  0.00000000E+00  0.00000000E+00  0.00000000E+00
  0.00000000E+00  0.00000000E+00  0.00000000E+00
  0.00000000E+00  0.00000000E+00  0.00000000E+00
  0.00000000E+00  0.00000000E+00  0.00000000E+00
  0.00000000E+00  0.00000000E+00  0.00000000E+00
