CONTCAR\(6)                             
   1.00000000000000     
     4.8587999344000004    0.0000000000000000    0.0000000000000000
     2.4293999672000002    4.2078441751000000    0.0000000000000000
     0.0000000000000000    0.0000000000000000   39.1618995667000007
   Pt   O    H 
    15     2     4
Selective dynamics
Direct
  0.3333300050000005  0.0000100000000032  0.0255399999999995   F   F   F
  0.9999899860000028  0.6666700239999983  0.0255399999999995   F   F   F
  0.6666600109999976  0.3333399890000024  0.0255399999999995   F   F   F
  0.0000000000000000  0.0000000000000000  0.0840200040000028   F   F   F
  0.6666700239999983  0.6666700239999983  0.0840200040000028   F   F   F
  0.3333300050000005  0.3333300050000005  0.0840200040000028   F   F   F
  0.9996149518273114  0.3333735059618377  0.1420075483022387   T   T   T
  0.6665324775428516  0.9999934215437065  0.1420208025755656   T   T   T
  0.3331679205784113  0.6664299475703146  0.1419741165015367   T   T   T
  0.3349236476922002  0.9970676732183819  0.1998068544050682   T   T   T
  0.9962477989778620  0.6672200884408284  0.1998947717528026   T   T   T
  0.6660522892738641  0.3363658572136927  0.1999267880759845   T   T   T
  0.9974302108353967  0.9997365913190635  0.2579918451535193   T   T   T
  0.6640424529731561  0.6657227719404517  0.2607145629478751   T   T   T
  0.3312873102870100  0.3320060861997618  0.2576244987339606   T   T   T
  0.6613511414649906  0.6636935267404880  0.3201183987607479   T   T   T
  0.3121948373978825  0.3144719028040299  0.3424174642502322   T   T   T
  0.3110889684333742  0.3123361764345276  0.3674283639629863   T   T   T
  0.8879566521792768  0.5581681218197545  0.3276256864867833   T   T   T
  0.5554661451544192  0.8904011983035218  0.3276211427178950   T   T   T
  0.4255347380220016  0.4275513148529839  0.3359127435096951   T   T   T
 
  0.00000000E+00  0.00000000E+00  0.00000000E+00
  0.00000000E+00  0.00000000E+00  0.00000000E+00
  0.00000000E+00  0.00000000E+00  0.00000000E+00
  0.00000000E+00  0.00000000E+00  0.00000000E+00
  0.00000000E+00  0.00000000E+00  0.00000000E+00
  0.00000000E+00  0.00000000E+00  0.00000000E+00
  0.00000000E+00  0.00000000E+00  0.00000000E+00
  0.00000000E+00  0.00000000E+00  0.00000000E+00
  0.00000000E+00  0.00000000E+00  0.00000000E+00
  0.00000000E+00  0.00000000E+00  0.00000000E+00
  0.00000000E+00  0.00000000E+00  0.00000000E+00
  0.00000000E+00  0.00000000E+00  0.00000000E+00
  0.00000000E+00  0.00000000E+00  0.00000000E+00
  0.00000000E+00  0.00000000E+00  0.00000000E+00
  0.00000000E+00  0.00000000E+00  0.00000000E+00
  0.00000000E+00  0.00000000E+00  0.00000000E+00
  0.00000000E+00  0.00000000E+00  0.00000000E+00
  0.00000000E+00  0.00000000E+00  0.00000000E+00
  0.00000000E+00  0.00000000E+00  0.00000000E+00
  0.00000000E+00  0.00000000E+00  0.00000000E+00
  0.00000000E+00  0.00000000E+00  0.00000000E+00
