CONTCAR\(6)                             
   1.00000000000000     
     4.8587999344000004    0.0000000000000000    0.0000000000000000
     2.4293999672000002    4.2078441751000000    0.0000000000000000
     0.0000000000000000    0.0000000000000000   39.1618995667000007
   Pt   O    H 
    15     2     4
Selective dynamics
Direct
  0.3333300050000005  0.0000100000000032  0.0255399999999995   F   F   F
  0.9999899860000028  0.6666700239999983  0.0255399999999995   F   F   F
  0.6666600109999976  0.3333399890000024  0.0255399999999995   F   F   F
  0.0000000000000000  0.0000000000000000  0.0840200040000028   F   F   F
  0.6666700239999983  0.6666700239999983  0.0840200040000028   F   F   F
  0.3333300050000005  0.3333300050000005  0.0840200040000028   F   F   F
  0.9996202327268524  0.3338381186665782  0.1418885123577336   T   T   T
  0.6651830483577035  0.0012355448538349  0.1419096793330710   T   T   T
  0.3319449340616683  0.6672449298413607  0.1419181943740036   T   T   T
  0.3335872427852978  0.9989584838727558  0.1998054776220349   T   T   T
  0.9942350006524882  0.6703734636318377  0.1997826540840568   T   T   T
  0.6656959571975332  0.3381037206703748  0.1997327610422455   T   T   T
  0.9965867665425618  0.0052853577706893  0.2579944640146912   T   T   T
  0.6633315691092125  0.6723310384469562  0.2609489932119380   T   T   T
  0.3303750188892395  0.3386063575429478  0.2572571601590461   T   T   T
  0.6555292229838818  0.6689711937671518  0.3238407084481264   T   T   T
  0.3126796375827844  0.3278609342883624  0.3371532556610038   T   T   T
  0.4258063824271615  0.4402768162324678  0.3439557572743369   T   T   T
  0.8815026675999214  0.5669855058944152  0.3312493363776990   T   T   T
  0.5527111351986196  0.8954060894948962  0.3310804327154626   T   T   T
  0.3225166614469163  0.3385929582195151  0.3114700482521913   T   T   T
 
  0.00000000E+00  0.00000000E+00  0.00000000E+00
  0.00000000E+00  0.00000000E+00  0.00000000E+00
  0.00000000E+00  0.00000000E+00  0.00000000E+00
  0.00000000E+00  0.00000000E+00  0.00000000E+00
  0.00000000E+00  0.00000000E+00  0.00000000E+00
  0.00000000E+00  0.00000000E+00  0.00000000E+00
  0.00000000E+00  0.00000000E+00  0.00000000E+00
  0.00000000E+00  0.00000000E+00  0.00000000E+00
  0.00000000E+00  0.00000000E+00  0.00000000E+00
  0.00000000E+00  0.00000000E+00  0.00000000E+00
  0.00000000E+00  0.00000000E+00  0.00000000E+00
  0.00000000E+00  0.00000000E+00  0.00000000E+00
  0.00000000E+00  0.00000000E+00  0.00000000E+00
  0.00000000E+00  0.00000000E+00  0.00000000E+00
  0.00000000E+00  0.00000000E+00  0.00000000E+00
  0.00000000E+00  0.00000000E+00  0.00000000E+00
  0.00000000E+00  0.00000000E+00  0.00000000E+00
  0.00000000E+00  0.00000000E+00  0.00000000E+00
  0.00000000E+00  0.00000000E+00  0.00000000E+00
  0.00000000E+00  0.00000000E+00  0.00000000E+00
  0.00000000E+00  0.00000000E+00  0.00000000E+00
