CONTCAR\(5)\(1\1\1)                     
   1.00000000000000     
     4.8588352202999996    0.0000000000000000    0.0000000000000000
     2.4294173300000002    4.2078748953999998    0.0000000000000000
     0.0000000000000000    0.0000000000000000   39.1618995667000007
   Pt
    15
Selective dynamics
Direct
  0.3333269950000002  0.0000069999999965  0.0255399999999995   F   F   F
  0.9999930259999985  0.6666730049999998  0.0255399999999995   F   F   F
  0.6666600109999976  0.3333399890000024  0.0255399999999995   F   F   F
  0.0000000000000000  0.0000000000000000  0.0840200040000028   F   F   F
  0.6666669849999991  0.6666669849999991  0.0840200040000028   F   F   F
  0.3333329860000021  0.3333329860000021  0.0840200040000028   F   F   F
 -0.0000007527051118  0.3333347477051085  0.1418365098302590   T   T   T
  0.6666652522948916  0.0000007787051069  0.1418365098302590   T   T   T
  0.3333322362948941  0.6666677637051058  0.1418365098302590   T   T   T
  0.3333361380261570 -0.0000021430261603  0.1996604986132831   T   T   T
  0.0000021690261553  0.6666638619738430  0.1996604986132831   T   T   T
  0.6666691540261545  0.3333308459738455  0.1996604986132831   T   T   T
 -0.0000017402055580  0.0000017402055580  0.2586241226391838   T   T   T
  0.6666652447944410  0.6666687252055572  0.2586241226391838   T   T   T
  0.3333312457944440  0.3333347262055602  0.2586241226391838   T   T   T
 
  0.00000000E+00  0.00000000E+00  0.00000000E+00
  0.00000000E+00  0.00000000E+00  0.00000000E+00
  0.00000000E+00  0.00000000E+00  0.00000000E+00
  0.00000000E+00  0.00000000E+00  0.00000000E+00
  0.00000000E+00  0.00000000E+00  0.00000000E+00
  0.00000000E+00  0.00000000E+00  0.00000000E+00
  0.00000000E+00  0.00000000E+00  0.00000000E+00
  0.00000000E+00  0.00000000E+00  0.00000000E+00
  0.00000000E+00  0.00000000E+00  0.00000000E+00
  0.00000000E+00  0.00000000E+00  0.00000000E+00
  0.00000000E+00  0.00000000E+00  0.00000000E+00
  0.00000000E+00  0.00000000E+00  0.00000000E+00
  0.00000000E+00  0.00000000E+00  0.00000000E+00
  0.00000000E+00  0.00000000E+00  0.00000000E+00
  0.00000000E+00  0.00000000E+00  0.00000000E+00
