9                                       
   1.00000000000000     
     8.4158000945999998    0.0000000000000000    0.0000000000000000
    -4.2079000472999999    7.2882966750999998    0.0000000000000000
     0.0000000000000000    0.0000000000000000   39.1618995667000007
   Pt   O    H 
    45     6    12
Selective dynamics
Direct
  0.2222200040000004  0.1111100019999967  0.0255399999999995   F   F   F
  0.2222200040000004  0.4444499909999990  0.0255399999999995   F   F   F
  0.2222200040000004  0.7777799959999996  0.0255399999999995   F   F   F
  0.5555499789999985  0.1111100019999967  0.0255399999999995   F   F   F
  0.5555499789999985  0.4444499909999990  0.0255399999999995   F   F   F
  0.5555499789999985  0.7777799959999996  0.0255399999999995   F   F   F
  0.8888900279999987  0.1111100019999967  0.0255399999999995   F   F   F
  0.8888900279999987  0.4444499909999990  0.0255399999999995   F   F   F
  0.8888900279999987  0.7777799959999996  0.0255399999999995   F   F   F
  0.0000000000000000  0.0000000000000000  0.0840200040000028   F   F   F
  0.0000000000000000  0.3333300050000005  0.0840200040000028   F   F   F
  0.0000000000000000  0.6666700239999983  0.0840200040000028   F   F   F
  0.3333300050000005  0.0000000000000000  0.0840200040000028   F   F   F
  0.3333300050000005  0.3333300050000005  0.0840200040000028   F   F   F
  0.3333300050000005  0.6666700239999983  0.0840200040000028   F   F   F
  0.6666700239999983  0.0000000000000000  0.0840200040000028   F   F   F
  0.6666700239999983  0.3333300050000005  0.0840200040000028   F   F   F
  0.6666700239999983  0.6666700239999983  0.0840200040000028   F   F   F
  0.1119257463973343  0.2226466968245026  0.1421665485381427   T   T   T
  0.1118400842793369  0.5550788605008095  0.1416894209544912   T   T   T
  0.1118337392324314  0.8902292791434797  0.1416909709527293   T   T   T
  0.4442594103151605  0.2227699475885631  0.1421359047779207   T   T   T
  0.4442246434660726  0.5549767583168214  0.1421558395848855   T   T   T
  0.4449173026884924  0.8891236762021129  0.1417131152618707   T   T   T
  0.7777410600023679  0.2219872867345670  0.1416978033309669   T   T   T
  0.7766694405874901  0.5550512567290856  0.1417174304794888   T   T   T
  0.7778111585626213  0.8891573546901627  0.1417283853791586   T   T   T
  0.2231984005072898  0.1128129519311337  0.2004897664798503   T   T   T
  0.2233582164586280  0.4440797699797739  0.2004862267214380   T   T   T
  0.2221658121563767  0.7777426211722082  0.1991576898921196   T   T   T
  0.5559159595118015  0.1115220597489791  0.1995356314936663   T   T   T
  0.5544123071512289  0.4439361847903662  0.2005353311191112   T   T   T
  0.5558318973579964  0.7779707825029391  0.1995441832243531   T   T   T
  0.8892755026967868  0.1112654699142591  0.1995639834204090   T   T   T
  0.8893994654202688  0.4450770522332734  0.1991515018182823   T   T   T
  0.8896806145387357  0.7779469331286857  0.1991543251115732   T   T   T
 -0.0017740986590758 -0.0017465583439437  0.2584093340338787   T   T   T
 -0.0018111456097862  0.3333866340080257  0.2582493796665957   T   T   T
  0.0006451134383603  0.6669788810955450  0.2583578334971103   T   T   T
  0.3340982998268870 -0.0018165356315298  0.2582343417984335   T   T   T
  0.3340586337285176  0.3337795567920113  0.2609398015738191   T   T   T
  0.3342279238778681  0.6693600932806475  0.2583782130623719   T   T   T
  0.6671442196173013  0.0004493810483564  0.2586702316535190   T   T   T
  0.6694377129338874  0.3335430127772019  0.2583981599977471   T   T   T
  0.6696612120193692  0.6697248918716667  0.2582170935475548   T   T   T
  0.3433774832270575  0.0302557751751574  0.3477939112513856   T   T   T
  0.0100818946297103  0.6565730951838338  0.3496640207601845   T   T   T
  0.6567644037770869  0.0099595993695679  0.3496864626902274   T   T   T
  0.0305512893462995  0.3432013115701644  0.3477908916940144   T   T   T
  0.6559620124683940  0.6560337403870478  0.3476385115095756   T   T   T
  0.3363318877791123  0.3361319853264494  0.3208987090889272   T   T   T
  0.4594610811548420  0.0246835340690720  0.3448246405124178   T   T   T
  0.0248065751595610  0.4591619301410345  0.3447779939076137   T   T   T
  0.5509534966242813  0.5510723007212869  0.3360593118931471   T   T   T
  0.6570664186668154  0.8971055147355417  0.3430602223224325   T   T   T
  0.7733678479405742  0.1132500689058226  0.3414874010506460   T   T   T
  0.2206388351261252  0.3318981064599379  0.3285533556742951   T   T   T
  0.3321896523159807  0.2204885552059356  0.3285608635545903   T   T   T
  0.1135049133000238  0.7730130410359083  0.3414360869524558   T   T   T
  0.8973964869687409  0.6569253407810248  0.3429330563249445   T   T   T
  0.6312489179387208  0.6305263860779987  0.3719221261083369   T   T   T
  0.3281582957730797  0.0286198853619068  0.3724794314725161   T   T   T
  0.0294296475263119  0.3284831751206537  0.3724830906279111   T   T   T
 
  0.00000000E+00  0.00000000E+00  0.00000000E+00
  0.00000000E+00  0.00000000E+00  0.00000000E+00
  0.00000000E+00  0.00000000E+00  0.00000000E+00
  0.00000000E+00  0.00000000E+00  0.00000000E+00
  0.00000000E+00  0.00000000E+00  0.00000000E+00
  0.00000000E+00  0.00000000E+00  0.00000000E+00
  0.00000000E+00  0.00000000E+00  0.00000000E+00
  0.00000000E+00  0.00000000E+00  0.00000000E+00
  0.00000000E+00  0.00000000E+00  0.00000000E+00
  0.00000000E+00  0.00000000E+00  0.00000000E+00
  0.00000000E+00  0.00000000E+00  0.00000000E+00
  0.00000000E+00  0.00000000E+00  0.00000000E+00
  0.00000000E+00  0.00000000E+00  0.00000000E+00
  0.00000000E+00  0.00000000E+00  0.00000000E+00
  0.00000000E+00  0.00000000E+00  0.00000000E+00
  0.00000000E+00  0.00000000E+00  0.00000000E+00
  0.00000000E+00  0.00000000E+00  0.00000000E+00
  0.00000000E+00  0.00000000E+00  0.00000000E+00
  0.00000000E+00  0.00000000E+00  0.00000000E+00
  0.00000000E+00  0.00000000E+00  0.00000000E+00
  0.00000000E+00  0.00000000E+00  0.00000000E+00
  0.00000000E+00  0.00000000E+00  0.00000000E+00
  0.00000000E+00  0.00000000E+00  0.00000000E+00
  0.00000000E+00  0.00000000E+00  0.00000000E+00
  0.00000000E+00  0.00000000E+00  0.00000000E+00
  0.00000000E+00  0.00000000E+00  0.00000000E+00
  0.00000000E+00  0.00000000E+00  0.00000000E+00
  0.00000000E+00  0.00000000E+00  0.00000000E+00
  0.00000000E+00  0.00000000E+00  0.00000000E+00
  0.00000000E+00  0.00000000E+00  0.00000000E+00
  0.00000000E+00  0.00000000E+00  0.00000000E+00
  0.00000000E+00  0.00000000E+00  0.00000000E+00
  0.00000000E+00  0.00000000E+00  0.00000000E+00
  0.00000000E+00  0.00000000E+00  0.00000000E+00
  0.00000000E+00  0.00000000E+00  0.00000000E+00
  0.00000000E+00  0.00000000E+00  0.00000000E+00
  0.00000000E+00  0.00000000E+00  0.00000000E+00
  0.00000000E+00  0.00000000E+00  0.00000000E+00
  0.00000000E+00  0.00000000E+00  0.00000000E+00
  0.00000000E+00  0.00000000E+00  0.00000000E+00
  0.00000000E+00  0.00000000E+00  0.00000000E+00
  0.00000000E+00  0.00000000E+00  0.00000000E+00
  0.00000000E+00  0.00000000E+00  0.00000000E+00
  0.00000000E+00  0.00000000E+00  0.00000000E+00
  0.00000000E+00  0.00000000E+00  0.00000000E+00
  0.00000000E+00  0.00000000E+00  0.00000000E+00
  0.00000000E+00  0.00000000E+00  0.00000000E+00
  0.00000000E+00  0.00000000E+00  0.00000000E+00
  0.00000000E+00  0.00000000E+00  0.00000000E+00
  0.00000000E+00  0.00000000E+00  0.00000000E+00
  0.00000000E+00  0.00000000E+00  0.00000000E+00
  0.00000000E+00  0.00000000E+00  0.00000000E+00
  0.00000000E+00  0.00000000E+00  0.00000000E+00
  0.00000000E+00  0.00000000E+00  0.00000000E+00
  0.00000000E+00  0.00000000E+00  0.00000000E+00
  0.00000000E+00  0.00000000E+00  0.00000000E+00
  0.00000000E+00  0.00000000E+00  0.00000000E+00
  0.00000000E+00  0.00000000E+00  0.00000000E+00
  0.00000000E+00  0.00000000E+00  0.00000000E+00
  0.00000000E+00  0.00000000E+00  0.00000000E+00
  0.00000000E+00  0.00000000E+00  0.00000000E+00
  0.00000000E+00  0.00000000E+00  0.00000000E+00
  0.00000000E+00  0.00000000E+00  0.00000000E+00
