Generated by VASPKIT code               
   1.00000000000000     
     8.4158000945999998    0.0000000000000000    0.0000000000000000
    -4.2079000472999999    7.2882966750999998    0.0000000000000000
     0.0000000000000000    0.0000000000000000   39.1618995667000007
   Pt   O    H 
    45     6    10
Selective dynamics
Direct
  0.2222200040000004  0.1111100019999967  0.0255399999999995   F   F   F
  0.2222200040000004  0.4444499909999990  0.0255399999999995   F   F   F
  0.2222200040000004  0.7777799959999996  0.0255399999999995   F   F   F
  0.5555499789999985  0.1111100019999967  0.0255399999999995   F   F   F
  0.5555499789999985  0.4444499909999990  0.0255399999999995   F   F   F
  0.5555499789999985  0.7777799959999996  0.0255399999999995   F   F   F
  0.8888900279999987  0.1111100019999967  0.0255399999999995   F   F   F
  0.8888900279999987  0.4444499909999990  0.0255399999999995   F   F   F
  0.8888900279999987  0.7777799959999996  0.0255399999999995   F   F   F
  0.0000000000000000  0.0000000000000000  0.0840200040000028   F   F   F
  0.0000000000000000  0.3333300050000005  0.0840200040000028   F   F   F
  0.0000000000000000  0.6666700239999983  0.0840200040000028   F   F   F
  0.3333300050000005  0.0000000000000000  0.0840200040000028   F   F   F
  0.3333300050000005  0.3333300050000005  0.0840200040000028   F   F   F
  0.3333300050000005  0.6666700239999983  0.0840200040000028   F   F   F
  0.6666700239999983  0.0000000000000000  0.0840200040000028   F   F   F
  0.6666700239999983  0.3333300050000005  0.0840200040000028   F   F   F
  0.6666700239999983  0.6666700239999983  0.0840200040000028   F   F   F
  0.1110212181854002  0.2216030889993297  0.1420047612822690   T   T   T
  0.1117683692497929  0.5564234581280675  0.1421634923297731   T   T   T
  0.1123756318442797  0.8894254558483344  0.1421532591901113   T   T   T
  0.4448096734759842  0.2219770480404429  0.1417851221833796   T   T   T
  0.4438137990376089  0.5563951691328447  0.1416720797709810   T   T   T
  0.4449414313117657  0.8900629392126485  0.1421214282063154   T   T   T
  0.7778690948313254  0.2225271992918984  0.1422330733792569   T   T   T
  0.7783444090430879  0.5556948639955515  0.1418194579617163   T   T   T
  0.7791637330362812  0.8902796685759824  0.1419386373808181   T   T   T
  0.2255239384569408  0.1133666983186770  0.1999938047499590   T   T   T
  0.2225165763603569  0.4443964234245929  0.1997871002484433   T   T   T
  0.2230669016437893  0.7796730188935964  0.2005241349601023   T   T   T
  0.5568757521508462  0.1115439623008441  0.2004753122810282   T   T   T
  0.5562238639712601  0.4464922548910676  0.1989144737697824   T   T   T
  0.5597403845178086  0.7821047677674060  0.1995595256948147   T   T   T
  0.8886094246366246  0.1129641244111303  0.2005065704126081   T   T   T
  0.8930590028879194  0.4481927967221979  0.2002221669528286   T   T   T
  0.8923205925663120  0.7781518111146696  0.1997445084588588   T   T   T
  0.0030773234281272  0.0018751629203919  0.2577073641788081   T   T   T
  0.0074841071201808  0.3365154527069332  0.2592700530443753   T   T   T
  0.0034948614938502  0.6695951410833106  0.2607921361620663   T   T   T
  0.3379564871181233  0.0059806362544270  0.2592131032185878   T   T   T
  0.3420865090750126  0.3408716503591923  0.2592005268198005   T   T   T
  0.3419751184614917  0.6703385534909142  0.2573527424580693   T   T   T
  0.6715069683990254  0.0029082119695061  0.2608195335596417   T   T   T
  0.6710353410448620  0.3404061790604063  0.2573023169743657   T   T   T
  0.6718061033936241  0.6707607672233734  0.2578318925166810   T   T   T
  0.3334215924795189  0.9905216261234109  0.3166350175270734   T   T   T
  0.0195468684024552  0.6635361545837933  0.3146203163989356   T   T   T
  0.6641305592419336  0.0187557411586585  0.3145916016552648   T   T   T
  0.9911883818195033  0.3331262047297615  0.3165850329069009   T   T   T
  0.6679564548796918  0.6678368834209605  0.3427098772340211   T   T   T
  0.3295478580066779  0.3286825401463038  0.3215753072844102   T   T   T
  0.4529691861706773  0.9881893844071464  0.3198306764052097   T   T   T
  0.9887894573961455  0.4527115515659756  0.3197617228521444   T   T   T
  0.5573875341952556  0.5569459506099546  0.3343223028709846   T   T   T
  0.6709608117339937  0.9117103243285712  0.3228976749299018   T   T   T
  0.2062990344348087  0.3159823307124970  0.3239414657944271   T   T   T
  0.3167051008832831  0.2053478630982095  0.3239515253063215   T   T   T
  0.9127293723234499  0.6708981225845301  0.3228791127761663   T   T   T
  0.6585472635040976  0.6583342103671903  0.3674948466766999   T   T   T
  0.2215415569757277  0.8633007930018713  0.3196935272878766   T   T   T
  0.8641116051737237  0.2212118213034345  0.3196620326033203   T   T   T
 
  0.00000000E+00  0.00000000E+00  0.00000000E+00
  0.00000000E+00  0.00000000E+00  0.00000000E+00
  0.00000000E+00  0.00000000E+00  0.00000000E+00
  0.00000000E+00  0.00000000E+00  0.00000000E+00
  0.00000000E+00  0.00000000E+00  0.00000000E+00
  0.00000000E+00  0.00000000E+00  0.00000000E+00
  0.00000000E+00  0.00000000E+00  0.00000000E+00
  0.00000000E+00  0.00000000E+00  0.00000000E+00
  0.00000000E+00  0.00000000E+00  0.00000000E+00
  0.00000000E+00  0.00000000E+00  0.00000000E+00
  0.00000000E+00  0.00000000E+00  0.00000000E+00
  0.00000000E+00  0.00000000E+00  0.00000000E+00
  0.00000000E+00  0.00000000E+00  0.00000000E+00
  0.00000000E+00  0.00000000E+00  0.00000000E+00
  0.00000000E+00  0.00000000E+00  0.00000000E+00
  0.00000000E+00  0.00000000E+00  0.00000000E+00
  0.00000000E+00  0.00000000E+00  0.00000000E+00
  0.00000000E+00  0.00000000E+00  0.00000000E+00
  0.00000000E+00  0.00000000E+00  0.00000000E+00
  0.00000000E+00  0.00000000E+00  0.00000000E+00
  0.00000000E+00  0.00000000E+00  0.00000000E+00
  0.00000000E+00  0.00000000E+00  0.00000000E+00
  0.00000000E+00  0.00000000E+00  0.00000000E+00
  0.00000000E+00  0.00000000E+00  0.00000000E+00
  0.00000000E+00  0.00000000E+00  0.00000000E+00
  0.00000000E+00  0.00000000E+00  0.00000000E+00
  0.00000000E+00  0.00000000E+00  0.00000000E+00
  0.00000000E+00  0.00000000E+00  0.00000000E+00
  0.00000000E+00  0.00000000E+00  0.00000000E+00
  0.00000000E+00  0.00000000E+00  0.00000000E+00
  0.00000000E+00  0.00000000E+00  0.00000000E+00
  0.00000000E+00  0.00000000E+00  0.00000000E+00
  0.00000000E+00  0.00000000E+00  0.00000000E+00
  0.00000000E+00  0.00000000E+00  0.00000000E+00
  0.00000000E+00  0.00000000E+00  0.00000000E+00
  0.00000000E+00  0.00000000E+00  0.00000000E+00
  0.00000000E+00  0.00000000E+00  0.00000000E+00
  0.00000000E+00  0.00000000E+00  0.00000000E+00
  0.00000000E+00  0.00000000E+00  0.00000000E+00
  0.00000000E+00  0.00000000E+00  0.00000000E+00
  0.00000000E+00  0.00000000E+00  0.00000000E+00
  0.00000000E+00  0.00000000E+00  0.00000000E+00
  0.00000000E+00  0.00000000E+00  0.00000000E+00
  0.00000000E+00  0.00000000E+00  0.00000000E+00
  0.00000000E+00  0.00000000E+00  0.00000000E+00
  0.00000000E+00  0.00000000E+00  0.00000000E+00
  0.00000000E+00  0.00000000E+00  0.00000000E+00
  0.00000000E+00  0.00000000E+00  0.00000000E+00
  0.00000000E+00  0.00000000E+00  0.00000000E+00
  0.00000000E+00  0.00000000E+00  0.00000000E+00
  0.00000000E+00  0.00000000E+00  0.00000000E+00
  0.00000000E+00  0.00000000E+00  0.00000000E+00
  0.00000000E+00  0.00000000E+00  0.00000000E+00
  0.00000000E+00  0.00000000E+00  0.00000000E+00
  0.00000000E+00  0.00000000E+00  0.00000000E+00
  0.00000000E+00  0.00000000E+00  0.00000000E+00
  0.00000000E+00  0.00000000E+00  0.00000000E+00
  0.00000000E+00  0.00000000E+00  0.00000000E+00
  0.00000000E+00  0.00000000E+00  0.00000000E+00
  0.00000000E+00  0.00000000E+00  0.00000000E+00
  0.00000000E+00  0.00000000E+00  0.00000000E+00
