Generated by VASPKIT code               
   1.00000000000000     
     8.4158000945999998    0.0000000000000000    0.0000000000000000
    -4.2079000472999999    7.2882966750999998    0.0000000000000000
     0.0000000000000000    0.0000000000000000   39.1618995667000007
   Pt   O    H 
    45     6    11
Selective dynamics
Direct
  0.2222200040000004  0.1111100019999967  0.0255399999999995   F   F   F
  0.2222200040000004  0.4444499909999990  0.0255399999999995   F   F   F
  0.2222200040000004  0.7777799959999996  0.0255399999999995   F   F   F
  0.5555499789999985  0.1111100019999967  0.0255399999999995   F   F   F
  0.5555499789999985  0.4444499909999990  0.0255399999999995   F   F   F
  0.5555499789999985  0.7777799959999996  0.0255399999999995   F   F   F
  0.8888900279999987  0.1111100019999967  0.0255399999999995   F   F   F
  0.8888900279999987  0.4444499909999990  0.0255399999999995   F   F   F
  0.8888900279999987  0.7777799959999996  0.0255399999999995   F   F   F
  0.0000000000000000  0.0000000000000000  0.0840200040000028   F   F   F
  0.0000000000000000  0.3333300050000005  0.0840200040000028   F   F   F
  0.0000000000000000  0.6666700239999983  0.0840200040000028   F   F   F
  0.3333300050000005  0.0000000000000000  0.0840200040000028   F   F   F
  0.3333300050000005  0.3333300050000005  0.0840200040000028   F   F   F
  0.3333300050000005  0.6666700239999983  0.0840200040000028   F   F   F
  0.6666700239999983  0.0000000000000000  0.0840200040000028   F   F   F
  0.6666700239999983  0.3333300050000005  0.0840200040000028   F   F   F
  0.6666700239999983  0.6666700239999983  0.0840200040000028   F   F   F
  0.1104684090225185  0.2226504449476583  0.1418764794203688   T   T   T
  0.1113070112216817  0.5558593212078495  0.1418239477142027   T   T   T
  0.1109816054412281  0.8895321707629690  0.1417218880828182   T   T   T
  0.4444021850509078  0.2227496296867153  0.1417912599823620   T   T   T
  0.4441867313657570  0.5562228545200019  0.1418818926806635   T   T   T
  0.4446175200069334  0.8896438678815286  0.1420975309038348   T   T   T
  0.7774693169114172  0.2225596464129494  0.1421717058245536   T   T   T
  0.7770748141863965  0.5556412229195337  0.1418867076329106   T   T   T
  0.7777582084694924  0.8896785334757205  0.1421722753999618   T   T   T
  0.2219436785757558  0.1139392695337803  0.1993761441928433   T   T   T
  0.2232032281120092  0.4457061622979488  0.1997555933652270   T   T   T
  0.2207783199472031  0.7785160805250533  0.1995396526192474   T   T   T
  0.5570899478558011  0.1123298089958606  0.2001934195475792   T   T   T
  0.5539252834143851  0.4456860808329440  0.1997404461949456   T   T   T
  0.5566908281623526  0.7821709798397397  0.2001989534446089   T   T   T
  0.8857689110801574  0.1115197663428753  0.2004240791581256   T   T   T
  0.8895265081815539  0.4476129656044011  0.1997157500638093   T   T   T
  0.8896992179171550  0.7786836122749010  0.1996852618331869   T   T   T
  0.0004962946228275  0.0035569811391437  0.2578621919645183   T   T   T
  0.0014941256801053  0.3385127391693512  0.2577857828614640   T   T   T
  0.0004408091722106  0.6708801867896491  0.2602674269818099   T   T   T
  0.3323507812969395  0.0040822673779303  0.2572082102935775   T   T   T
  0.3343140606585356  0.3376052015925553  0.2601686989573402   T   T   T
  0.3336234283441114  0.6704549159027403  0.2579541077802921   T   T   T
  0.6664429625252384  0.0052548297634250  0.2618815528580411   T   T   T
  0.6672435489511225  0.3387885271115778  0.2579444682102192   T   T   T
  0.6672862036576902  0.6711349624360987  0.2578683810681197   T   T   T
  0.3537714613889245  0.0045945144339936  0.3389138040618977   T   T   T
  0.0078621622180194  0.6704333135173614  0.3205576880916499   T   T   T
  0.6621725218104780  0.0105964353212460  0.3152721812367654   T   T   T
  0.0047953650164310  0.2974055331080153  0.3376860123370025   T   T   T
  0.6700388070001486  0.6449842757521100  0.3425026509811526   T   T   T
  0.3285490235021902  0.3241935609539789  0.3194489792010052   T   T   T
  0.4657547172216051  0.0046894647846134  0.3288644679538947   T   T   T
  0.0042247064277453  0.4109437742457002  0.3321589818798755   T   T   T
  0.5588381267529527  0.5394561890782500  0.3325790332859034   T   T   T
  0.6578826549317988  0.8954330957921895  0.3216504555260052   T   T   T
  0.2037848390567843  0.3070651263040520  0.3258065880198538   T   T   T
  0.3286130324384398  0.2085005938855933  0.3248431280242543   T   T   T
  0.1185866289551980  0.7890135882117758  0.3264352038358727   T   T   T
  0.8966850986426940  0.6749081480149272  0.3277824647340195   T   T   T
  0.6503986406684840  0.6319099027287787  0.3670966425588409   T   T   T
  0.3730299668251157  0.0105615170144463  0.3635284118850473   T   T   T
  0.8847685409808644  0.1953152694777592  0.3290109540237872   T   T   T
 
  0.00000000E+00  0.00000000E+00  0.00000000E+00
  0.00000000E+00  0.00000000E+00  0.00000000E+00
  0.00000000E+00  0.00000000E+00  0.00000000E+00
  0.00000000E+00  0.00000000E+00  0.00000000E+00
  0.00000000E+00  0.00000000E+00  0.00000000E+00
  0.00000000E+00  0.00000000E+00  0.00000000E+00
  0.00000000E+00  0.00000000E+00  0.00000000E+00
  0.00000000E+00  0.00000000E+00  0.00000000E+00
  0.00000000E+00  0.00000000E+00  0.00000000E+00
  0.00000000E+00  0.00000000E+00  0.00000000E+00
  0.00000000E+00  0.00000000E+00  0.00000000E+00
  0.00000000E+00  0.00000000E+00  0.00000000E+00
  0.00000000E+00  0.00000000E+00  0.00000000E+00
  0.00000000E+00  0.00000000E+00  0.00000000E+00
  0.00000000E+00  0.00000000E+00  0.00000000E+00
  0.00000000E+00  0.00000000E+00  0.00000000E+00
  0.00000000E+00  0.00000000E+00  0.00000000E+00
  0.00000000E+00  0.00000000E+00  0.00000000E+00
  0.00000000E+00  0.00000000E+00  0.00000000E+00
  0.00000000E+00  0.00000000E+00  0.00000000E+00
  0.00000000E+00  0.00000000E+00  0.00000000E+00
  0.00000000E+00  0.00000000E+00  0.00000000E+00
  0.00000000E+00  0.00000000E+00  0.00000000E+00
  0.00000000E+00  0.00000000E+00  0.00000000E+00
  0.00000000E+00  0.00000000E+00  0.00000000E+00
  0.00000000E+00  0.00000000E+00  0.00000000E+00
  0.00000000E+00  0.00000000E+00  0.00000000E+00
  0.00000000E+00  0.00000000E+00  0.00000000E+00
  0.00000000E+00  0.00000000E+00  0.00000000E+00
  0.00000000E+00  0.00000000E+00  0.00000000E+00
  0.00000000E+00  0.00000000E+00  0.00000000E+00
  0.00000000E+00  0.00000000E+00  0.00000000E+00
  0.00000000E+00  0.00000000E+00  0.00000000E+00
  0.00000000E+00  0.00000000E+00  0.00000000E+00
  0.00000000E+00  0.00000000E+00  0.00000000E+00
  0.00000000E+00  0.00000000E+00  0.00000000E+00
  0.00000000E+00  0.00000000E+00  0.00000000E+00
  0.00000000E+00  0.00000000E+00  0.00000000E+00
  0.00000000E+00  0.00000000E+00  0.00000000E+00
  0.00000000E+00  0.00000000E+00  0.00000000E+00
  0.00000000E+00  0.00000000E+00  0.00000000E+00
  0.00000000E+00  0.00000000E+00  0.00000000E+00
  0.00000000E+00  0.00000000E+00  0.00000000E+00
  0.00000000E+00  0.00000000E+00  0.00000000E+00
  0.00000000E+00  0.00000000E+00  0.00000000E+00
  0.00000000E+00  0.00000000E+00  0.00000000E+00
  0.00000000E+00  0.00000000E+00  0.00000000E+00
  0.00000000E+00  0.00000000E+00  0.00000000E+00
  0.00000000E+00  0.00000000E+00  0.00000000E+00
  0.00000000E+00  0.00000000E+00  0.00000000E+00
  0.00000000E+00  0.00000000E+00  0.00000000E+00
  0.00000000E+00  0.00000000E+00  0.00000000E+00
  0.00000000E+00  0.00000000E+00  0.00000000E+00
  0.00000000E+00  0.00000000E+00  0.00000000E+00
  0.00000000E+00  0.00000000E+00  0.00000000E+00
  0.00000000E+00  0.00000000E+00  0.00000000E+00
  0.00000000E+00  0.00000000E+00  0.00000000E+00
  0.00000000E+00  0.00000000E+00  0.00000000E+00
  0.00000000E+00  0.00000000E+00  0.00000000E+00
  0.00000000E+00  0.00000000E+00  0.00000000E+00
  0.00000000E+00  0.00000000E+00  0.00000000E+00
  0.00000000E+00  0.00000000E+00  0.00000000E+00
