CONTCAR\(5)\(1\1\1)                     
   1.00000000000000     
     8.4157495498999992    0.0000000000000000    0.0000000000000000
    -4.2078757454000000    7.2882523417999998    0.0000000000000000
     0.0000000000000000    0.0000000000000000   39.1618995667000007
   Pt
    45
Selective dynamics
Direct
  0.2222200040000004  0.1111129969999993  0.0255399999999995   F   F   F
  0.2222200040000004  0.4444470110000012  0.0255399999999995   F   F   F
  0.2222200040000004  0.7777799959999996  0.0255399999999995   F   F   F
  0.5555530190000013  0.1111129969999993  0.0255399999999995   F   F   F
  0.5555530190000013  0.4444470110000012  0.0255399999999995   F   F   F
  0.5555530190000013  0.7777799959999996  0.0255399999999995   F   F   F
  0.8888869880000030  0.1111129969999993  0.0255399999999995   F   F   F
  0.8888869880000030  0.4444470110000012  0.0255399999999995   F   F   F
  0.8888869880000030  0.7777799959999996  0.0255399999999995   F   F   F
  0.0000000000000000  0.0000000000000000  0.0840200040000028   F   F   F
  0.0000000000000000  0.3333329860000021  0.0840200040000028   F   F   F
  0.0000000000000000  0.6666669849999991  0.0840200040000028   F   F   F
  0.3333329860000021  0.0000000000000000  0.0840200040000028   F   F   F
  0.3333329860000021  0.3333329860000021  0.0840200040000028   F   F   F
  0.3333329860000021  0.6666669849999991  0.0840200040000028   F   F   F
  0.6666669849999991  0.0000000000000000  0.0840200040000028   F   F   F
  0.6666669849999991  0.3333329860000021  0.0840200040000028   F   F   F
  0.6666669849999991  0.6666669849999991  0.0840200040000028   F   F   F
  0.1111129969999993  0.2222200040000004  0.1418120273658225   T   T   T
  0.1111129969999993  0.5555530190000013  0.1418120273658225   T   T   T
  0.1111129969999993  0.8888869880000030  0.1418120273658225   T   T   T
  0.4444470110000012  0.2222200040000004  0.1418120273658225   T   T   T
  0.4444470110000012  0.5555530190000013  0.1418120273658225   T   T   T
  0.4444470110000012  0.8888869880000030  0.1418120273658225   T   T   T
  0.7777799959999996  0.2222200040000004  0.1418120273658225   T   T   T
  0.7777799959999996  0.5555530190000013  0.1418120273658225   T   T   T
  0.7777799959999996  0.8888869880000030  0.1418120273658225   T   T   T
  0.2222200040000004  0.1111129969999993  0.1996226172932222   T   T   T
  0.2222200040000004  0.4444470110000012  0.1996226172932222   T   T   T
  0.2222200040000004  0.7777799959999996  0.1996226172932222   T   T   T
  0.5555530190000013  0.1111129969999993  0.1996226172932222   T   T   T
  0.5555530190000013  0.4444470110000012  0.1996226172932222   T   T   T
  0.5555530190000013  0.7777799959999996  0.1996226172932222   T   T   T
  0.8888869880000030  0.1111129969999993  0.1996226172932222   T   T   T
  0.8888869880000030  0.4444470110000012  0.1996226172932222   T   T   T
  0.8888869880000030  0.7777799959999996  0.1996226172932222   T   T   T
 -0.0000000000000000 -0.0000000000000000  0.2584606344023861   T   T   T
 -0.0000000000000000  0.3333329860000021  0.2584606344023861   T   T   T
 -0.0000000000000000  0.6666669849999991  0.2584606344023861   T   T   T
  0.3333329860000021 -0.0000000000000000  0.2584606344023861   T   T   T
  0.3333329860000021  0.3333329860000021  0.2584606344023861   T   T   T
  0.3333329860000021  0.6666669849999991  0.2584606344023861   T   T   T
  0.6666669849999991 -0.0000000000000000  0.2584606344023861   T   T   T
  0.6666669849999991  0.3333329860000021  0.2584606344023861   T   T   T
  0.6666669849999991  0.6666669849999991  0.2584606344023861   T   T   T
 
  0.00000000E+00  0.00000000E+00  0.00000000E+00
  0.00000000E+00  0.00000000E+00  0.00000000E+00
  0.00000000E+00  0.00000000E+00  0.00000000E+00
  0.00000000E+00  0.00000000E+00  0.00000000E+00
  0.00000000E+00  0.00000000E+00  0.00000000E+00
  0.00000000E+00  0.00000000E+00  0.00000000E+00
  0.00000000E+00  0.00000000E+00  0.00000000E+00
  0.00000000E+00  0.00000000E+00  0.00000000E+00
  0.00000000E+00  0.00000000E+00  0.00000000E+00
  0.00000000E+00  0.00000000E+00  0.00000000E+00
  0.00000000E+00  0.00000000E+00  0.00000000E+00
  0.00000000E+00  0.00000000E+00  0.00000000E+00
  0.00000000E+00  0.00000000E+00  0.00000000E+00
  0.00000000E+00  0.00000000E+00  0.00000000E+00
  0.00000000E+00  0.00000000E+00  0.00000000E+00
  0.00000000E+00  0.00000000E+00  0.00000000E+00
  0.00000000E+00  0.00000000E+00  0.00000000E+00
  0.00000000E+00  0.00000000E+00  0.00000000E+00
  0.00000000E+00  0.00000000E+00  0.00000000E+00
  0.00000000E+00  0.00000000E+00  0.00000000E+00
  0.00000000E+00  0.00000000E+00  0.00000000E+00
  0.00000000E+00  0.00000000E+00  0.00000000E+00
  0.00000000E+00  0.00000000E+00  0.00000000E+00
  0.00000000E+00  0.00000000E+00  0.00000000E+00
  0.00000000E+00  0.00000000E+00  0.00000000E+00
  0.00000000E+00  0.00000000E+00  0.00000000E+00
  0.00000000E+00  0.00000000E+00  0.00000000E+00
  0.00000000E+00  0.00000000E+00  0.00000000E+00
  0.00000000E+00  0.00000000E+00  0.00000000E+00
  0.00000000E+00  0.00000000E+00  0.00000000E+00
  0.00000000E+00  0.00000000E+00  0.00000000E+00
  0.00000000E+00  0.00000000E+00  0.00000000E+00
  0.00000000E+00  0.00000000E+00  0.00000000E+00
  0.00000000E+00  0.00000000E+00  0.00000000E+00
  0.00000000E+00  0.00000000E+00  0.00000000E+00
  0.00000000E+00  0.00000000E+00  0.00000000E+00
  0.00000000E+00  0.00000000E+00  0.00000000E+00
  0.00000000E+00  0.00000000E+00  0.00000000E+00
  0.00000000E+00  0.00000000E+00  0.00000000E+00
  0.00000000E+00  0.00000000E+00  0.00000000E+00
  0.00000000E+00  0.00000000E+00  0.00000000E+00
  0.00000000E+00  0.00000000E+00  0.00000000E+00
  0.00000000E+00  0.00000000E+00  0.00000000E+00
  0.00000000E+00  0.00000000E+00  0.00000000E+00
  0.00000000E+00  0.00000000E+00  0.00000000E+00
