Generated by VASPKIT code               
   1.00000000000000     
     8.4158000945999998    0.0000000000000000    0.0000000000000000
    -4.2079000472999999    7.2882966750999998    0.0000000000000000
     0.0000000000000000    0.0000000000000000   39.1618995667000007
   Pt   O    H 
    45     6     9
Selective dynamics
Direct
  0.2222200040000004  0.1111100019999967  0.0255399999999995   F   F   F
  0.2222200040000004  0.4444499909999990  0.0255399999999995   F   F   F
  0.2222200040000004  0.7777799959999996  0.0255399999999995   F   F   F
  0.5555499789999985  0.1111100019999967  0.0255399999999995   F   F   F
  0.5555499789999985  0.4444499909999990  0.0255399999999995   F   F   F
  0.5555499789999985  0.7777799959999996  0.0255399999999995   F   F   F
  0.8888900279999987  0.1111100019999967  0.0255399999999995   F   F   F
  0.8888900279999987  0.4444499909999990  0.0255399999999995   F   F   F
  0.8888900279999987  0.7777799959999996  0.0255399999999995   F   F   F
  0.0000000000000000  0.0000000000000000  0.0840200040000028   F   F   F
  0.0000000000000000  0.3333300050000005  0.0840200040000028   F   F   F
  0.0000000000000000  0.6666700239999983  0.0840200040000028   F   F   F
  0.3333300050000005  0.0000000000000000  0.0840200040000028   F   F   F
  0.3333300050000005  0.3333300050000005  0.0840200040000028   F   F   F
  0.3333300050000005  0.6666700239999983  0.0840200040000028   F   F   F
  0.6666700239999983  0.0000000000000000  0.0840200040000028   F   F   F
  0.6666700239999983  0.3333300050000005  0.0840200040000028   F   F   F
  0.6666700239999983  0.6666700239999983  0.0840200040000028   F   F   F
  0.1120657190729102  0.2214679909608822  0.1425326558892388   T   T   T
  0.1115617753164409  0.5560181080719772  0.1420355618692383   T   T   T
  0.1133278882091200  0.8906906623397638  0.1423590066857908   T   T   T
  0.4440416866446099  0.2214707227580460  0.1423508339926897   T   T   T
  0.4431179207620847  0.5552397960453594  0.1417497274399421   T   T   T
  0.4444380498183343  0.8902036582962065  0.1420867810150915   T   T   T
  0.7782911878067952  0.2224888917525652  0.1421185367720101   T   T   T
  0.7788694397376267  0.5558245584341864  0.1415661065634078   T   T   T
  0.7790118193056138  0.8901121917627666  0.1417060604683221   T   T   T
  0.2278688759600804  0.1147960057693058  0.2021067689300147   T   T   T
  0.2209395280003123  0.4410198278922270  0.2003720158542226   T   T   T
  0.2213038739879064  0.7787662963545933  0.2004500210929488   T   T   T
  0.5556160109576386  0.1088601764836262  0.2006632164730656   T   T   T
  0.5547636150442498  0.4448316910748513  0.1991018014094543   T   T   T
  0.5579198095959936  0.7803357185908248  0.1990957024758573   T   T   T
  0.8877084161715423  0.1114192300645964  0.2004723688283302   T   T   T
  0.8917749306834164  0.4466627713476837  0.2000072573391091   T   T   T
  0.8918634462939073  0.7781866563741983  0.1993236704521838   T   T   T
 -0.0016023318644294 -0.0026531562357949  0.2580341310891855   T   T   T
  0.0019158141858728  0.3322317659428889  0.2595198822854899   T   T   T
 -0.0021659881038934  0.6646784486055078  0.2603005144666928   T   T   T
  0.3322657220164742  0.0005301965818013  0.2603699700702142   T   T   T
  0.3376075625350338  0.3371443465356485  0.2614309190062098   T   T   T
  0.3372217060647850  0.6667189752260666  0.2567151712176238   T   T   T
  0.6677985991575939 -0.0026430769701376  0.2604638166407167   T   T   T
  0.6664270059806041  0.3346847090431444  0.2569751753255338   T   T   T
  0.6692370074317682  0.6672586628744713  0.2568613276928471   T   T   T
  0.3319990526208969  0.9682897608929907  0.3146481167196019   T   T   T
  0.0019221617540449  0.6531603901063575  0.3137105082824618   T   T   T
  0.6631869280364752  0.0043305990347243  0.3138017904931586   T   T   T
  0.9782494817041519  0.3306132716105267  0.3150404582716126   T   T   T
  0.6653991783345232  0.6697863006412406  0.3374826749223687   T   T   T
  0.3592274594230455  0.3766650004747036  0.3128038010700173   T   T   T
  0.4500672334879504  0.9646361858957834  0.3186454403325487   T   T   T
  0.9695831550595995  0.4472531020129511  0.3185895229340951   T   T   T
  0.5486817398843846  0.5600272950495753  0.3286617946370884   T   T   T
  0.6728859727690527  0.8974892939142116  0.3217375415698490   T   T   T
  0.2397001261102474  0.3605544599947683  0.3197010796822135   T   T   T
  0.8963065806287246  0.6647553788819702  0.3215577609646633   T   T   T
  0.6588019640231609  0.6576252010128825  0.3622452566229867   T   T   T
  0.2181250812795420  0.8456880489893124  0.3188658227773924   T   T   T
  0.8561347946147064  0.2140670659836450  0.3190256186971584   T   T   T
 
  0.00000000E+00  0.00000000E+00  0.00000000E+00
  0.00000000E+00  0.00000000E+00  0.00000000E+00
  0.00000000E+00  0.00000000E+00  0.00000000E+00
  0.00000000E+00  0.00000000E+00  0.00000000E+00
  0.00000000E+00  0.00000000E+00  0.00000000E+00
  0.00000000E+00  0.00000000E+00  0.00000000E+00
  0.00000000E+00  0.00000000E+00  0.00000000E+00
  0.00000000E+00  0.00000000E+00  0.00000000E+00
  0.00000000E+00  0.00000000E+00  0.00000000E+00
  0.00000000E+00  0.00000000E+00  0.00000000E+00
  0.00000000E+00  0.00000000E+00  0.00000000E+00
  0.00000000E+00  0.00000000E+00  0.00000000E+00
  0.00000000E+00  0.00000000E+00  0.00000000E+00
  0.00000000E+00  0.00000000E+00  0.00000000E+00
  0.00000000E+00  0.00000000E+00  0.00000000E+00
  0.00000000E+00  0.00000000E+00  0.00000000E+00
  0.00000000E+00  0.00000000E+00  0.00000000E+00
  0.00000000E+00  0.00000000E+00  0.00000000E+00
  0.00000000E+00  0.00000000E+00  0.00000000E+00
  0.00000000E+00  0.00000000E+00  0.00000000E+00
  0.00000000E+00  0.00000000E+00  0.00000000E+00
  0.00000000E+00  0.00000000E+00  0.00000000E+00
  0.00000000E+00  0.00000000E+00  0.00000000E+00
  0.00000000E+00  0.00000000E+00  0.00000000E+00
  0.00000000E+00  0.00000000E+00  0.00000000E+00
  0.00000000E+00  0.00000000E+00  0.00000000E+00
  0.00000000E+00  0.00000000E+00  0.00000000E+00
  0.00000000E+00  0.00000000E+00  0.00000000E+00
  0.00000000E+00  0.00000000E+00  0.00000000E+00
  0.00000000E+00  0.00000000E+00  0.00000000E+00
  0.00000000E+00  0.00000000E+00  0.00000000E+00
  0.00000000E+00  0.00000000E+00  0.00000000E+00
  0.00000000E+00  0.00000000E+00  0.00000000E+00
  0.00000000E+00  0.00000000E+00  0.00000000E+00
  0.00000000E+00  0.00000000E+00  0.00000000E+00
  0.00000000E+00  0.00000000E+00  0.00000000E+00
  0.00000000E+00  0.00000000E+00  0.00000000E+00
  0.00000000E+00  0.00000000E+00  0.00000000E+00
  0.00000000E+00  0.00000000E+00  0.00000000E+00
  0.00000000E+00  0.00000000E+00  0.00000000E+00
  0.00000000E+00  0.00000000E+00  0.00000000E+00
  0.00000000E+00  0.00000000E+00  0.00000000E+00
  0.00000000E+00  0.00000000E+00  0.00000000E+00
  0.00000000E+00  0.00000000E+00  0.00000000E+00
  0.00000000E+00  0.00000000E+00  0.00000000E+00
  0.00000000E+00  0.00000000E+00  0.00000000E+00
  0.00000000E+00  0.00000000E+00  0.00000000E+00
  0.00000000E+00  0.00000000E+00  0.00000000E+00
  0.00000000E+00  0.00000000E+00  0.00000000E+00
  0.00000000E+00  0.00000000E+00  0.00000000E+00
  0.00000000E+00  0.00000000E+00  0.00000000E+00
  0.00000000E+00  0.00000000E+00  0.00000000E+00
  0.00000000E+00  0.00000000E+00  0.00000000E+00
  0.00000000E+00  0.00000000E+00  0.00000000E+00
  0.00000000E+00  0.00000000E+00  0.00000000E+00
  0.00000000E+00  0.00000000E+00  0.00000000E+00
  0.00000000E+00  0.00000000E+00  0.00000000E+00
  0.00000000E+00  0.00000000E+00  0.00000000E+00
  0.00000000E+00  0.00000000E+00  0.00000000E+00
  0.00000000E+00  0.00000000E+00  0.00000000E+00
