CONTCAR\(6)                             
   1.00000000000000     
     4.8587999344000004    0.0000000000000000    0.0000000000000000
     2.4293999672000002    4.2078441751000000    0.0000000000000000
     0.0000000000000000    0.0000000000000000   39.1618995667000007
   Pt   O    H 
    15     2     4
Selective dynamics
Direct
  0.3333300050000005  0.0000100000000032  0.0255399999999995   F   F   F
  0.9999899860000028  0.6666700239999983  0.0255399999999995   F   F   F
  0.6666600109999976  0.3333399890000024  0.0255399999999995   F   F   F
  0.0000000000000000  0.0000000000000000  0.0840200040000028   F   F   F
  0.6666700239999983  0.6666700239999983  0.0840200040000028   F   F   F
  0.3333300050000005  0.3333300050000005  0.0840200040000028   F   F   F
  0.9996202327268549  0.3338381186665771  0.1418885123577311   T   T   T
  0.6651830483577044  0.0012355448538344  0.1419096793330681   T   T   T
  0.3319449340616671  0.6672449298413596  0.1419181943740071   T   T   T
  0.3335872427852991  0.9989584838727552  0.1998054776220357   T   T   T
  0.9942350006524876  0.6703734636318401  0.1997826540840535   T   T   T
  0.6656959571975349  0.3381037206703752  0.1997327610422488   T   T   T
  0.9965867665425634  0.0052853577706884  0.2579944640146934   T   T   T
  0.6633315691092108  0.6723310384469556  0.2609489932119402   T   T   T
  0.3303750188892423  0.3386063575429503  0.2572571601590425   T   T   T
  0.6555292229838798  0.6689711937671490  0.3238407084481238   T   T   T
  0.3126796375827823  0.3278609342883598  0.3371532556610006   T   T   T
  0.4258063824271616  0.4402768162324691  0.3439557572743368   T   T   T
  0.8815026675999178  0.5669855058944151  0.3312493363777023   T   T   T
  0.5527111351986207  0.8954060894948981  0.3310804327154599   T   T   T
  0.3225166614469188  0.3385929582195146  0.3114700482521897   T   T   T
 
  0.00000000E+00  0.00000000E+00  0.00000000E+00
  0.00000000E+00  0.00000000E+00  0.00000000E+00
  0.00000000E+00  0.00000000E+00  0.00000000E+00
  0.00000000E+00  0.00000000E+00  0.00000000E+00
  0.00000000E+00  0.00000000E+00  0.00000000E+00
  0.00000000E+00  0.00000000E+00  0.00000000E+00
  0.00000000E+00  0.00000000E+00  0.00000000E+00
  0.00000000E+00  0.00000000E+00  0.00000000E+00
  0.00000000E+00  0.00000000E+00  0.00000000E+00
  0.00000000E+00  0.00000000E+00  0.00000000E+00
  0.00000000E+00  0.00000000E+00  0.00000000E+00
  0.00000000E+00  0.00000000E+00  0.00000000E+00
  0.00000000E+00  0.00000000E+00  0.00000000E+00
  0.00000000E+00  0.00000000E+00  0.00000000E+00
  0.00000000E+00  0.00000000E+00  0.00000000E+00
  0.00000000E+00  0.00000000E+00  0.00000000E+00
  0.00000000E+00  0.00000000E+00  0.00000000E+00
  0.00000000E+00  0.00000000E+00  0.00000000E+00
  0.00000000E+00  0.00000000E+00  0.00000000E+00
  0.00000000E+00  0.00000000E+00  0.00000000E+00
  0.00000000E+00  0.00000000E+00  0.00000000E+00
