CONTCAR\(6)                             
   1.00000000000000     
     4.8587999344000004    0.0000000000000000    0.0000000000000000
     2.4293999672000002    4.2078441751000000    0.0000000000000000
     0.0000000000000000    0.0000000000000000   39.1618995667000007
   Pt   O    H 
    15     2     4
Selective dynamics
Direct
  0.3333300050000005  0.0000100000000032  0.0255399999999995   F   F   F
  0.9999899860000028  0.6666700239999983  0.0255399999999995   F   F   F
  0.6666600109999976  0.3333399890000024  0.0255399999999995   F   F   F
  0.0000000000000000  0.0000000000000000  0.0840200040000028   F   F   F
  0.6666700239999983  0.6666700239999983  0.0840200040000028   F   F   F
  0.3333300050000005  0.3333300050000005  0.0840200040000028   F   F   F
  0.9998851343403985  0.3329845623226331  0.1417899284463875   T   T   T
  0.6660498509520930 -0.0000826851109148  0.1417862348277845   T   T   T
  0.3329376307074424  0.6660724615704663  0.1417842068970128   T   T   T
  0.3310593091750241  0.9978605115584455  0.1996001653846867   T   T   T
  0.9974666455538347  0.6649313255741545  0.1996049199492377   T   T   T
  0.6645130726286338  0.3314802487738341  0.1995989651822318   T   T   T
  0.9943682305229105  0.9954847866870823  0.2586121016231342   T   T   T
  0.6609197083256080  0.6622416186624391  0.2586715638627717   T   T   T
  0.3278088101872221  0.3288799125165096  0.2585817384758225   T   T   T
  0.6554962169113643  0.6632543766521667  0.3601659745847893   T   T   T
  0.3306886797258082  0.3395401717700398  0.3448761391812079   T   T   T
  0.4476978398433056  0.4568871371779613  0.3493127080912358   T   T   T
  0.8822846076329977  0.5643716066914030  0.3537929318649377   T   T   T
  0.5569734231358755  0.8902836645927754  0.3538521578878752   T   T   T
  0.3229481114827971  0.3312475568318763  0.3196408751773661   T   T   T
 
  0.00000000E+00  0.00000000E+00  0.00000000E+00
  0.00000000E+00  0.00000000E+00  0.00000000E+00
  0.00000000E+00  0.00000000E+00  0.00000000E+00
  0.00000000E+00  0.00000000E+00  0.00000000E+00
  0.00000000E+00  0.00000000E+00  0.00000000E+00
  0.00000000E+00  0.00000000E+00  0.00000000E+00
  0.00000000E+00  0.00000000E+00  0.00000000E+00
  0.00000000E+00  0.00000000E+00  0.00000000E+00
  0.00000000E+00  0.00000000E+00  0.00000000E+00
  0.00000000E+00  0.00000000E+00  0.00000000E+00
  0.00000000E+00  0.00000000E+00  0.00000000E+00
  0.00000000E+00  0.00000000E+00  0.00000000E+00
  0.00000000E+00  0.00000000E+00  0.00000000E+00
  0.00000000E+00  0.00000000E+00  0.00000000E+00
  0.00000000E+00  0.00000000E+00  0.00000000E+00
  0.00000000E+00  0.00000000E+00  0.00000000E+00
  0.00000000E+00  0.00000000E+00  0.00000000E+00
  0.00000000E+00  0.00000000E+00  0.00000000E+00
  0.00000000E+00  0.00000000E+00  0.00000000E+00
  0.00000000E+00  0.00000000E+00  0.00000000E+00
  0.00000000E+00  0.00000000E+00  0.00000000E+00
