CONTCAR\(6)                             
   1.00000000000000     
     4.8587999344000004    0.0000000000000000    0.0000000000000000
     2.4293999672000002    4.2078441751000000    0.0000000000000000
     0.0000000000000000    0.0000000000000000   39.1618995667000007
   Pt   O    H 
    15     2     4
Selective dynamics
Direct
  0.3333300050000005  0.0000100000000032  0.0255399999999995   F   F   F
  0.9999899860000028  0.6666700239999983  0.0255399999999995   F   F   F
  0.6666600109999976  0.3333399890000024  0.0255399999999995   F   F   F
  0.0000000000000000  0.0000000000000000  0.0840200040000028   F   F   F
  0.6666700239999983  0.6666700239999983  0.0840200040000028   F   F   F
  0.3333300050000005  0.3333300050000005  0.0840200040000028   F   F   F
  0.9998851343403956  0.3329845623226362  0.1417899284463857   T   T   T
  0.6660498509520920  0.9999173148890819  0.1417862348277836   T   T   T
  0.3329376307074412  0.6660724615704652  0.1417842068970145   T   T   T
  0.3310593091750249  0.9978605115584429  0.1996001653846875   T   T   T
  0.9974666455538355  0.6649313255741518  0.1996049199492376   T   T   T
  0.6645130726286368  0.3314802487738362  0.1995989651822327   T   T   T
  0.9943682305229089  0.9954847866870793  0.2586121016231360   T   T   T
  0.6609197083256078  0.6622416186624420  0.2586715638627695   T   T   T
  0.3278088101872214  0.3288799125165127  0.2585817384758258   T   T   T
  0.6554962169113665  0.6632543766521692  0.3601659745847883   T   T   T
  0.3306886797258102  0.3395401717700395  0.3448761391812099   T   T   T
  0.4476978398433076  0.4568871371779579  0.3493127080912330   T   T   T
  0.8822846076329967  0.5643716066914024  0.3537929318649375   T   T   T
  0.5569734231358723  0.8902836645927721  0.3538521578878786   T   T   T
  0.3229481114827948  0.3312475568318760  0.3196408751773632   T   T   T
 
  0.00000000E+00  0.00000000E+00  0.00000000E+00
  0.00000000E+00  0.00000000E+00  0.00000000E+00
  0.00000000E+00  0.00000000E+00  0.00000000E+00
  0.00000000E+00  0.00000000E+00  0.00000000E+00
  0.00000000E+00  0.00000000E+00  0.00000000E+00
  0.00000000E+00  0.00000000E+00  0.00000000E+00
  0.00000000E+00  0.00000000E+00  0.00000000E+00
  0.00000000E+00  0.00000000E+00  0.00000000E+00
  0.00000000E+00  0.00000000E+00  0.00000000E+00
  0.00000000E+00  0.00000000E+00  0.00000000E+00
  0.00000000E+00  0.00000000E+00  0.00000000E+00
  0.00000000E+00  0.00000000E+00  0.00000000E+00
  0.00000000E+00  0.00000000E+00  0.00000000E+00
  0.00000000E+00  0.00000000E+00  0.00000000E+00
  0.00000000E+00  0.00000000E+00  0.00000000E+00
  0.00000000E+00  0.00000000E+00  0.00000000E+00
  0.00000000E+00  0.00000000E+00  0.00000000E+00
  0.00000000E+00  0.00000000E+00  0.00000000E+00
  0.00000000E+00  0.00000000E+00  0.00000000E+00
  0.00000000E+00  0.00000000E+00  0.00000000E+00
  0.00000000E+00  0.00000000E+00  0.00000000E+00
