CONTCAR\(6)                             
   1.00000000000000     
     4.8587999344000004    0.0000000000000000    0.0000000000000000
     2.4293999672000002    4.2078441751000000    0.0000000000000000
     0.0000000000000000    0.0000000000000000   39.1618995667000007
   Pt   O    H 
    15     2     4
Selective dynamics
Direct
  0.3333300050000005  0.0000100000000032  0.0255399999999995   F   F   F
  0.9999899860000028  0.6666700239999983  0.0255399999999995   F   F   F
  0.6666600109999976  0.3333399890000024  0.0255399999999995   F   F   F
  0.0000000000000000  0.0000000000000000  0.0840200040000028   F   F   F
  0.6666700239999983  0.6666700239999983  0.0840200040000028   F   F   F
  0.3333300050000005  0.3333300050000005  0.0840200040000028   F   F   F
  0.9998646099305741  0.3329696404303486  0.1417885090413934   T   T   T
  0.6660394414455026  0.9998977264399742  0.1417856272542935   T   T   T
  0.3329232966766916  0.6660622219989979  0.1417840596663809   T   T   T
  0.3310489390659980  0.9978630662672054  0.1996000804559557   T   T   T
  0.9974630279925101  0.6649170871289714  0.1996045628042128   T   T   T
  0.6644999453673516  0.3314740914222252  0.1995986053925934   T   T   T
  0.9943888887890154  0.9955055104931355  0.2586135288190481   T   T   T
  0.6609427960908923  0.6622571770306100  0.2586752708693106   T   T   T
  0.3278275194099591  0.3288990451591343  0.2585807919657730   T   T   T
  0.6553706820499545  0.6633037159672633  0.3601561755135136   T   T   T
  0.3306830251477672  0.3395230706496560  0.3448441385247130   T   T   T
  0.4477664195592830  0.4569387276350839  0.3493277878637013   T   T   T
  0.8823113613931787  0.5643385282828701  0.3538048543290677   T   T   T
  0.5569748715300249  0.8902048361033736  0.3538655740007436   T   T   T
  0.3229731796935036  0.3312734905131690  0.3196707633840157   T   T   T
 
  0.00000000E+00  0.00000000E+00  0.00000000E+00
  0.00000000E+00  0.00000000E+00  0.00000000E+00
  0.00000000E+00  0.00000000E+00  0.00000000E+00
  0.00000000E+00  0.00000000E+00  0.00000000E+00
  0.00000000E+00  0.00000000E+00  0.00000000E+00
  0.00000000E+00  0.00000000E+00  0.00000000E+00
  0.00000000E+00  0.00000000E+00  0.00000000E+00
  0.00000000E+00  0.00000000E+00  0.00000000E+00
  0.00000000E+00  0.00000000E+00  0.00000000E+00
  0.00000000E+00  0.00000000E+00  0.00000000E+00
  0.00000000E+00  0.00000000E+00  0.00000000E+00
  0.00000000E+00  0.00000000E+00  0.00000000E+00
  0.00000000E+00  0.00000000E+00  0.00000000E+00
  0.00000000E+00  0.00000000E+00  0.00000000E+00
  0.00000000E+00  0.00000000E+00  0.00000000E+00
  0.00000000E+00  0.00000000E+00  0.00000000E+00
  0.00000000E+00  0.00000000E+00  0.00000000E+00
  0.00000000E+00  0.00000000E+00  0.00000000E+00
  0.00000000E+00  0.00000000E+00  0.00000000E+00
  0.00000000E+00  0.00000000E+00  0.00000000E+00
  0.00000000E+00  0.00000000E+00  0.00000000E+00
