9                                       
   1.00000000000000     
     8.4158000945999998    0.0000000000000000    0.0000000000000000
    -4.2079000472999999    7.2882966750999998    0.0000000000000000
     0.0000000000000000    0.0000000000000000   39.1618995667000007
   Pt   O    H 
    45     6     7
Selective dynamics
Direct
  0.2222200040000004  0.1111100019999967  0.0255399999999995   F   F   F
  0.2222200040000004  0.4444499909999990  0.0255399999999995   F   F   F
  0.2222200040000004  0.7777799959999996  0.0255399999999995   F   F   F
  0.5555499789999985  0.1111100019999967  0.0255399999999995   F   F   F
  0.5555499789999985  0.4444499909999990  0.0255399999999995   F   F   F
  0.5555499789999985  0.7777799959999996  0.0255399999999995   F   F   F
  0.8888900279999987  0.1111100019999967  0.0255399999999995   F   F   F
  0.8888900279999987  0.4444499909999990  0.0255399999999995   F   F   F
  0.8888900279999987  0.7777799959999996  0.0255399999999995   F   F   F
  0.0000000000000000  0.0000000000000000  0.0840200040000028   F   F   F
  0.0000000000000000  0.3333300050000005  0.0840200040000028   F   F   F
  0.0000000000000000  0.6666700239999983  0.0840200040000028   F   F   F
  0.3333300050000005  0.0000000000000000  0.0840200040000028   F   F   F
  0.3333300050000005  0.3333300050000005  0.0840200040000028   F   F   F
  0.3333300050000005  0.6666700239999983  0.0840200040000028   F   F   F
  0.6666700239999983  0.0000000000000000  0.0840200040000028   F   F   F
  0.6666700239999983  0.3333300050000005  0.0840200040000028   F   F   F
  0.6666700239999983  0.6666700239999983  0.0840200040000028   F   F   F
  0.1118044152368073  0.2223895106420334  0.1421396664720775   T   T   T
  0.1114361459206049  0.5565947002849169  0.1420906229977190   T   T   T
  0.1110320599200166  0.8903653462108880  0.1424441209622526   T   T   T
  0.4446349035553534  0.2225099376073016  0.1423025926176384   T   T   T
  0.4446298688576533  0.5557379361651755  0.1419341083282223   T   T   T
  0.4450088572461051  0.8901237208111310  0.1419486184917677   T   T   T
  0.7787018429667237  0.2229328543014439  0.1419246372753593   T   T   T
  0.7787998050679263  0.5566557082281788  0.1421076838206559   T   T   T
  0.7788161182601585  0.8891881673847176  0.1420975390701884   T   T   T
  0.2273154674832037  0.1152018332466440  0.2013657731952426   T   T   T
  0.2201958931383252  0.4421440283982140  0.1999944693230744   T   T   T
  0.2210970163844746  0.7814699571296353  0.2000384082750391   T   T   T
  0.5554236947661221  0.1098673544922241  0.2002968667169458   T   T   T
  0.5545038482648933  0.4469190181004390  0.2002020136143490   T   T   T
  0.5582284004967129  0.7803736337487388  0.1997085210331919   T   T   T
  0.8881465510773703  0.1129613988153367  0.2001173167594158   T   T   T
  0.8912487634959150  0.4464345714335579  0.2002549907248691   T   T   T
  0.8875208291055439  0.7750449519382230  0.2010732487375061   T   T   T
  0.0002910755923380  0.0017260235355889  0.2574608162934703   T   T   T
 -0.0015592106756142  0.3335452941675788  0.2596767007935018   T   T   T
 -0.0018208478001553  0.6676115067210583  0.2602647626611303   T   T   T
  0.3323341872300682  0.0008848753713819  0.2605726816258111   T   T   T
  0.3312965651853594  0.3340160662624000  0.2604875645881097   T   T   T
  0.3318239171630177  0.6679331670512123  0.2560306885404137   T   T   T
  0.6665907477683902  0.0023254694689015  0.2595400094178582   T   T   T
  0.6646166626231927  0.3342963632467789  0.2571155669710154   T   T   T
  0.6679593910195535  0.6694705830035881  0.2597193167728513   T   T   T
  0.3332660090008137  0.9795435976109377  0.3112944759276449   T   T   T
  0.0137436293875884  0.6592859940866975  0.3109374823497096   T   T   T
  0.6691175153573570 -0.0032026014458940  0.3116798179242939   T   T   T
 -0.0061194174111841  0.3299195320130592  0.3115374489605544   T   T   T
  0.6404746666827189  0.6703263404011660  0.3127986752163759   T   T   T
  0.3390035792271755  0.3748586676144436  0.3114064690074826   T   T   T
  0.4551438288240277  0.9931031855533202  0.3169485562381728   T   T   T
 -0.0021571988620560  0.4488726585896464  0.3169933572503894   T   T   T
  0.5086585715816688  0.5564377954409186  0.3166554315363786   T   T   T
  0.6471365045492755  0.7924830354800261  0.3176538115664644   T   T   T
  0.7834742985003854  0.1133841780927625  0.3178304310358430   T   T   T
  0.2160849025601319  0.3607353097389521  0.3168538070523626   T   T   T
  0.1321761838053406  0.7736661265287532  0.3166544840544215   T   T   T
 
  0.00000000E+00  0.00000000E+00  0.00000000E+00
  0.00000000E+00  0.00000000E+00  0.00000000E+00
  0.00000000E+00  0.00000000E+00  0.00000000E+00
  0.00000000E+00  0.00000000E+00  0.00000000E+00
  0.00000000E+00  0.00000000E+00  0.00000000E+00
  0.00000000E+00  0.00000000E+00  0.00000000E+00
  0.00000000E+00  0.00000000E+00  0.00000000E+00
  0.00000000E+00  0.00000000E+00  0.00000000E+00
  0.00000000E+00  0.00000000E+00  0.00000000E+00
  0.00000000E+00  0.00000000E+00  0.00000000E+00
  0.00000000E+00  0.00000000E+00  0.00000000E+00
  0.00000000E+00  0.00000000E+00  0.00000000E+00
  0.00000000E+00  0.00000000E+00  0.00000000E+00
  0.00000000E+00  0.00000000E+00  0.00000000E+00
  0.00000000E+00  0.00000000E+00  0.00000000E+00
  0.00000000E+00  0.00000000E+00  0.00000000E+00
  0.00000000E+00  0.00000000E+00  0.00000000E+00
  0.00000000E+00  0.00000000E+00  0.00000000E+00
  0.00000000E+00  0.00000000E+00  0.00000000E+00
  0.00000000E+00  0.00000000E+00  0.00000000E+00
  0.00000000E+00  0.00000000E+00  0.00000000E+00
  0.00000000E+00  0.00000000E+00  0.00000000E+00
  0.00000000E+00  0.00000000E+00  0.00000000E+00
  0.00000000E+00  0.00000000E+00  0.00000000E+00
  0.00000000E+00  0.00000000E+00  0.00000000E+00
  0.00000000E+00  0.00000000E+00  0.00000000E+00
  0.00000000E+00  0.00000000E+00  0.00000000E+00
  0.00000000E+00  0.00000000E+00  0.00000000E+00
  0.00000000E+00  0.00000000E+00  0.00000000E+00
  0.00000000E+00  0.00000000E+00  0.00000000E+00
  0.00000000E+00  0.00000000E+00  0.00000000E+00
  0.00000000E+00  0.00000000E+00  0.00000000E+00
  0.00000000E+00  0.00000000E+00  0.00000000E+00
  0.00000000E+00  0.00000000E+00  0.00000000E+00
  0.00000000E+00  0.00000000E+00  0.00000000E+00
  0.00000000E+00  0.00000000E+00  0.00000000E+00
  0.00000000E+00  0.00000000E+00  0.00000000E+00
  0.00000000E+00  0.00000000E+00  0.00000000E+00
  0.00000000E+00  0.00000000E+00  0.00000000E+00
  0.00000000E+00  0.00000000E+00  0.00000000E+00
  0.00000000E+00  0.00000000E+00  0.00000000E+00
  0.00000000E+00  0.00000000E+00  0.00000000E+00
  0.00000000E+00  0.00000000E+00  0.00000000E+00
  0.00000000E+00  0.00000000E+00  0.00000000E+00
  0.00000000E+00  0.00000000E+00  0.00000000E+00
  0.00000000E+00  0.00000000E+00  0.00000000E+00
  0.00000000E+00  0.00000000E+00  0.00000000E+00
  0.00000000E+00  0.00000000E+00  0.00000000E+00
  0.00000000E+00  0.00000000E+00  0.00000000E+00
  0.00000000E+00  0.00000000E+00  0.00000000E+00
  0.00000000E+00  0.00000000E+00  0.00000000E+00
  0.00000000E+00  0.00000000E+00  0.00000000E+00
  0.00000000E+00  0.00000000E+00  0.00000000E+00
  0.00000000E+00  0.00000000E+00  0.00000000E+00
  0.00000000E+00  0.00000000E+00  0.00000000E+00
  0.00000000E+00  0.00000000E+00  0.00000000E+00
  0.00000000E+00  0.00000000E+00  0.00000000E+00
  0.00000000E+00  0.00000000E+00  0.00000000E+00
