CONTCAR\(6)                             
   1.00000000000000     
     4.8587999344000004    0.0000000000000000    0.0000000000000000
     2.4293999672000002    4.2078441751000000    0.0000000000000000
     0.0000000000000000    0.0000000000000000   39.1618995667000007
   Pt   O    H 
    15     2     4
Selective dynamics
Direct
  0.3333300050000005  0.0000100000000032  0.0255399999999995   F   F   F
  0.9999899860000028  0.6666700239999983  0.0255399999999995   F   F   F
  0.6666600109999976  0.3333399890000024  0.0255399999999995   F   F   F
  0.0000000000000000  0.0000000000000000  0.0840200040000028   F   F   F
  0.6666700239999983  0.6666700239999983  0.0840200040000028   F   F   F
  0.3333300050000005  0.3333300050000005  0.0840200040000028   F   F   F
  0.9993609528492300  0.3325156683061863  0.1417458524840356   T   T   T
  0.6655764014635324  0.9994300077428377  0.1417521299974638   T   T   T
  0.3324321340967842  0.6656623812036457  0.1417551023914569   T   T   T
  0.3308444657342591  0.9975860904904295  0.1995711641370619   T   T   T
  0.9970577005678933  0.6648046804278138  0.1995702974812090   T   T   T
  0.6643424202795458  0.3313700169131835  0.1995626650108804   T   T   T
  0.9951207484610407  0.9962046252899768  0.2585566081809176   T   T   T
  0.6617282668381677  0.6628842838521436  0.2587010483840402   T   T   T
  0.3285720514201600  0.3295882454853043  0.2584079781559652   T   T   T
  0.6527442054347929  0.6608195093146847  0.3594132056046391   T   T   T
  0.3314631009675963  0.3401277477290279  0.3450079600383944   T   T   T
  0.4486664160654286  0.4573496991093222  0.3497872612089807   T   T   T
  0.8821790785007337  0.5637881495850223  0.3544816756405709   T   T   T
  0.5559310039438614  0.8902302461268761  0.3544929944762174   T   T   T
  0.3246929365341344  0.3330782722594421  0.3198810100369585   T   T   T
 
  0.00000000E+00  0.00000000E+00  0.00000000E+00
  0.00000000E+00  0.00000000E+00  0.00000000E+00
  0.00000000E+00  0.00000000E+00  0.00000000E+00
  0.00000000E+00  0.00000000E+00  0.00000000E+00
  0.00000000E+00  0.00000000E+00  0.00000000E+00
  0.00000000E+00  0.00000000E+00  0.00000000E+00
  0.00000000E+00  0.00000000E+00  0.00000000E+00
  0.00000000E+00  0.00000000E+00  0.00000000E+00
  0.00000000E+00  0.00000000E+00  0.00000000E+00
  0.00000000E+00  0.00000000E+00  0.00000000E+00
  0.00000000E+00  0.00000000E+00  0.00000000E+00
  0.00000000E+00  0.00000000E+00  0.00000000E+00
  0.00000000E+00  0.00000000E+00  0.00000000E+00
  0.00000000E+00  0.00000000E+00  0.00000000E+00
  0.00000000E+00  0.00000000E+00  0.00000000E+00
  0.00000000E+00  0.00000000E+00  0.00000000E+00
  0.00000000E+00  0.00000000E+00  0.00000000E+00
  0.00000000E+00  0.00000000E+00  0.00000000E+00
  0.00000000E+00  0.00000000E+00  0.00000000E+00
  0.00000000E+00  0.00000000E+00  0.00000000E+00
  0.00000000E+00  0.00000000E+00  0.00000000E+00
