CONTCAR\(6)                             
   1.00000000000000     
     4.8587999344000004    0.0000000000000000    0.0000000000000000
     2.4293999672000002    4.2078441751000000    0.0000000000000000
     0.0000000000000000    0.0000000000000000   39.1618995667000007
   Pt   O    H 
    15     2     4
Selective dynamics
Direct
  0.3333300050000005  0.0000100000000032  0.0255399999999995   F   F   F
  0.9999899860000028  0.6666700239999983  0.0255399999999995   F   F   F
  0.6666600109999976  0.3333399890000024  0.0255399999999995   F   F   F
  0.0000000000000000  0.0000000000000000  0.0840200040000028   F   F   F
  0.6666700239999983  0.6666700239999983  0.0840200040000028   F   F   F
  0.3333300050000005  0.3333300050000005  0.0840200040000028   F   F   F
  0.9998644337983025  0.3329696684334877  0.1417890761930329   T   T   T
  0.6660392185535576  0.9998976224869723  0.1417861866402186   T   T   T
  0.3329233128916800  0.6660619806361096  0.1417846060237506   T   T   T
  0.3310488312970717  0.9978628177657042  0.1996000016130361   T   T   T
  0.9974628663359050  0.6649170596885631  0.1996045011220123   T   T   T
  0.6644997282860875  0.3314739782498266  0.1995985637217575   T   T   T
  0.9943891408813781  0.9955056909369329  0.2586140392235849   T   T   T
  0.6609430618209875  0.6622573600440337  0.2586754139951466   T   T   T
  0.3278274386242612  0.3288990761135439  0.2585821061884814   T   T   T
  0.6553742048950497  0.6633081935863141  0.3601620604672717   T   T   T
  0.3306882669053496  0.3395283675972568  0.3448511545959564   T   T   T
  0.4477585490551594  0.4569308039606592  0.3493249780880255   T   T   T
  0.8823163949561892  0.5643344880097522  0.3538018439151196   T   T   T
  0.5569709992264257  0.8902092728761521  0.3538625610109319   T   T   T
  0.3229713253717539  0.3312713844042455  0.3196662097298304   T   T   T
 
  0.00000000E+00  0.00000000E+00  0.00000000E+00
  0.00000000E+00  0.00000000E+00  0.00000000E+00
  0.00000000E+00  0.00000000E+00  0.00000000E+00
  0.00000000E+00  0.00000000E+00  0.00000000E+00
  0.00000000E+00  0.00000000E+00  0.00000000E+00
  0.00000000E+00  0.00000000E+00  0.00000000E+00
  0.00000000E+00  0.00000000E+00  0.00000000E+00
  0.00000000E+00  0.00000000E+00  0.00000000E+00
  0.00000000E+00  0.00000000E+00  0.00000000E+00
  0.00000000E+00  0.00000000E+00  0.00000000E+00
  0.00000000E+00  0.00000000E+00  0.00000000E+00
  0.00000000E+00  0.00000000E+00  0.00000000E+00
  0.00000000E+00  0.00000000E+00  0.00000000E+00
  0.00000000E+00  0.00000000E+00  0.00000000E+00
  0.00000000E+00  0.00000000E+00  0.00000000E+00
  0.00000000E+00  0.00000000E+00  0.00000000E+00
  0.00000000E+00  0.00000000E+00  0.00000000E+00
  0.00000000E+00  0.00000000E+00  0.00000000E+00
  0.00000000E+00  0.00000000E+00  0.00000000E+00
  0.00000000E+00  0.00000000E+00  0.00000000E+00
  0.00000000E+00  0.00000000E+00  0.00000000E+00
