CONTCAR\(6)                             
   1.00000000000000     
     4.8587999344000004    0.0000000000000000    0.0000000000000000
     2.4293999672000002    4.2078441751000000    0.0000000000000000
     0.0000000000000000    0.0000000000000000   39.1618995667000007
   Pt   O    H 
    15     2     4
Selective dynamics
Direct
  0.3333300050000005  0.0000100000000032  0.0255399999999995   F   F   F
  0.9999899860000028  0.6666700239999983  0.0255399999999995   F   F   F
  0.6666600109999976  0.3333399890000024  0.0255399999999995   F   F   F
  0.0000000000000000  0.0000000000000000  0.0840200040000028   F   F   F
  0.6666700239999983  0.6666700239999983  0.0840200040000028   F   F   F
  0.3333300050000005  0.3333300050000005  0.0840200040000028   F   F   F
  0.9997173785582064  0.3328639240947842  0.1417956507709056   T   T   T
  0.6659422141438409  0.9997654947221807  0.1417978027455198   T   T   T
  0.3328186153343375  0.6659607144116947  0.1417985791029914   T   T   T
  0.3309681033075614  0.9978757651940254  0.1996029196906121   T   T   T
  0.9974362728903827  0.6648077161494161  0.1996062096376793   T   T   T
  0.6643864515112926  0.3314210283926024  0.1996009477341414   T   T   T
  0.9945536995698461  0.9956634368707472  0.2586555675362987   T   T   T
  0.6611245466051298  0.6623835017150640  0.2587134722742013   T   T   T
  0.3279594742003236  0.3290395301444416  0.2586592578684738   T   T   T
  0.6555947647140903  0.6634985887528456  0.3603967904309421   T   T   T
  0.3308174457264743  0.3396193203068736  0.3449282632118620   T   T   T
  0.4479034541023808  0.4569763549115319  0.3492861327473388   T   T   T
  0.8819960303219482  0.5641982607034054  0.3537380189352657   T   T   T
  0.5566968450013441  0.8899783896228045  0.3537836455854373   T   T   T
  0.3230165461424813  0.3313067150613846  0.3196815359028992   T   T   T
 
  0.00000000E+00  0.00000000E+00  0.00000000E+00
  0.00000000E+00  0.00000000E+00  0.00000000E+00
  0.00000000E+00  0.00000000E+00  0.00000000E+00
  0.00000000E+00  0.00000000E+00  0.00000000E+00
  0.00000000E+00  0.00000000E+00  0.00000000E+00
  0.00000000E+00  0.00000000E+00  0.00000000E+00
  0.00000000E+00  0.00000000E+00  0.00000000E+00
  0.00000000E+00  0.00000000E+00  0.00000000E+00
  0.00000000E+00  0.00000000E+00  0.00000000E+00
  0.00000000E+00  0.00000000E+00  0.00000000E+00
  0.00000000E+00  0.00000000E+00  0.00000000E+00
  0.00000000E+00  0.00000000E+00  0.00000000E+00
  0.00000000E+00  0.00000000E+00  0.00000000E+00
  0.00000000E+00  0.00000000E+00  0.00000000E+00
  0.00000000E+00  0.00000000E+00  0.00000000E+00
  0.00000000E+00  0.00000000E+00  0.00000000E+00
  0.00000000E+00  0.00000000E+00  0.00000000E+00
  0.00000000E+00  0.00000000E+00  0.00000000E+00
  0.00000000E+00  0.00000000E+00  0.00000000E+00
  0.00000000E+00  0.00000000E+00  0.00000000E+00
  0.00000000E+00  0.00000000E+00  0.00000000E+00
